Co Mo 
 1.0000000000000000
    23.0339999999999989    0.0000000000000000    0.0000000000000000
     0.0000000000000000   23.0339999999999989    0.0000000000000000
     0.0000000000000000    0.0000000000000000   23.0339999999999989
 Co  Mo 
 260 604
Cartesian
  0.0000000000000000  0.0000000000000000  7.6779999999999990
  0.0000000000000000  0.0000000000000000 11.5169999999999977
  0.0000000000000000  1.9194999999999998 13.4364999999999970
  0.0000000000000000  0.0000000000000000 15.3559999999999981
  1.9194999999999998  1.9194999999999998 19.1949999999999967
  1.9194999999999998  3.8389999999999995  1.9194999999999998
  0.0000000000000000  3.8389999999999995  3.8389999999999995
  0.0000000000000000  5.7584999999999997 13.4364999999999970
  0.0000000000000000  3.8389999999999995 15.3559999999999981
  0.0000000000000000  5.7584999999999997 17.2754999999999974
  1.9194999999999998  5.7584999999999997 19.1949999999999967
  1.9194999999999998  7.6779999999999990  5.7584999999999997
  1.9194999999999998  9.5974999999999984  3.8389999999999995
  0.0000000000000000  9.5974999999999984  9.5974999999999984
  1.9194999999999998  9.5974999999999984  7.6779999999999990
  1.9194999999999998  7.6779999999999990 13.4364999999999970
  1.9194999999999998  9.5974999999999984 11.5169999999999977
  1.9194999999999998 13.4364999999999970  0.0000000000000000
  1.9194999999999998 13.4364999999999970  3.8389999999999995
  0.0000000000000000 11.5169999999999977 11.5169999999999977
  0.0000000000000000 15.3559999999999981  7.6779999999999990
  1.9194999999999998 15.3559999999999981 17.2754999999999974
  1.9194999999999998 21.1144999999999960  0.0000000000000000
  0.0000000000000000 21.1144999999999960  5.7584999999999997
  1.9194999999999998 21.1144999999999960  3.8389999999999995
  0.0000000000000000 21.1144999999999960  9.5974999999999984
  0.0000000000000000 21.1144999999999960 17.2754999999999974
  1.9194999999999998 19.1949999999999967 17.2754999999999974
  1.9194999999999998 19.1949999999999967 21.1144999999999960
  3.8389999999999995  0.0000000000000000  0.0000000000000000
  3.8389999999999995  1.9194999999999998  1.9194999999999998
  3.8389999999999995  0.0000000000000000  3.8389999999999995
  3.8389999999999995  1.9194999999999998  5.7584999999999997
  5.7584999999999997  1.9194999999999998  3.8389999999999995
  3.8389999999999995  0.0000000000000000  7.6779999999999990
  5.7584999999999997  0.0000000000000000  9.5974999999999984
  5.7584999999999997  1.9194999999999998 11.5169999999999977
  3.8389999999999995  0.0000000000000000 15.3559999999999981
  3.8389999999999995  1.9194999999999998 17.2754999999999974
  3.8389999999999995  1.9194999999999998 21.1144999999999960
  3.8389999999999995  5.7584999999999997  1.9194999999999998
  5.7584999999999997  5.7584999999999997  0.0000000000000000
  3.8389999999999995  3.8389999999999995  3.8389999999999995
  5.7584999999999997  5.7584999999999997  3.8389999999999995
  3.8389999999999995  3.8389999999999995  7.6779999999999990
  3.8389999999999995  3.8389999999999995 11.5169999999999977
  5.7584999999999997  5.7584999999999997 11.5169999999999977
  3.8389999999999995  3.8389999999999995 15.3559999999999981
  3.8389999999999995  5.7584999999999997 17.2754999999999974
  5.7584999999999997  3.8389999999999995 17.2754999999999974
  3.8389999999999995  5.7584999999999997 21.1144999999999960
  5.7584999999999997  3.8389999999999995 21.1144999999999960
  5.7584999999999997  5.7584999999999997 19.1949999999999967
  5.7584999999999997  9.5974999999999984  0.0000000000000000
  5.7584999999999997  7.6779999999999990  5.7584999999999997
  5.7584999999999997  9.5974999999999984  3.8389999999999995
  3.8389999999999995  9.5974999999999984  9.5974999999999984
  5.7584999999999997  9.5974999999999984  7.6779999999999990
  5.7584999999999997  7.6779999999999990 13.4364999999999970
  5.7584999999999997  9.5974999999999984 11.5169999999999977
  5.7584999999999997  9.5974999999999984 15.3559999999999981
  5.7584999999999997  9.5974999999999984 19.1949999999999967
  3.8389999999999995 13.4364999999999970  1.9194999999999998
  3.8389999999999995 11.5169999999999977  3.8389999999999995
  5.7584999999999997 11.5169999999999977  5.7584999999999997
  5.7584999999999997 11.5169999999999977  9.5974999999999984
  5.7584999999999997 11.5169999999999977 13.4364999999999970
  3.8389999999999995 17.2754999999999974  1.9194999999999998
  5.7584999999999997 15.3559999999999981  1.9194999999999998
  5.7584999999999997 15.3559999999999981  5.7584999999999997
  5.7584999999999997 17.2754999999999974 11.5169999999999977
  5.7584999999999997 15.3559999999999981 17.2754999999999974
  5.7584999999999997 19.1949999999999967  1.9194999999999998
  3.8389999999999995 19.1949999999999967  3.8389999999999995
  3.8389999999999995 21.1144999999999960  5.7584999999999997
  5.7584999999999997 19.1949999999999967  5.7584999999999997
  5.7584999999999997 21.1144999999999960  3.8389999999999995
  3.8389999999999995 19.1949999999999967  7.6779999999999990
  5.7584999999999997 21.1144999999999960 11.5169999999999977
  5.7584999999999997 19.1949999999999967 21.1144999999999960
  9.5974999999999984  0.0000000000000000  1.9194999999999998
  7.6779999999999990  0.0000000000000000  3.8389999999999995
  7.6779999999999990  1.9194999999999998  5.7584999999999997
  7.6779999999999990  0.0000000000000000  7.6779999999999990
  7.6779999999999990  1.9194999999999998  9.5974999999999984
  9.5974999999999984  0.0000000000000000 13.4364999999999970
  9.5974999999999984  1.9194999999999998 11.5169999999999977
  7.6779999999999990  1.9194999999999998 17.2754999999999974
  9.5974999999999984  0.0000000000000000 17.2754999999999974
  7.6779999999999990  0.0000000000000000 19.1949999999999967
  7.6779999999999990  1.9194999999999998 21.1144999999999960
  9.5974999999999984  1.9194999999999998 19.1949999999999967
  7.6779999999999990  3.8389999999999995  0.0000000000000000
  7.6779999999999990  5.7584999999999997  1.9194999999999998
  7.6779999999999990  3.8389999999999995  3.8389999999999995
  9.5974999999999984  3.8389999999999995  5.7584999999999997
  9.5974999999999984  5.7584999999999997  3.8389999999999995
  7.6779999999999990  3.8389999999999995  7.6779999999999990
  7.6779999999999990  5.7584999999999997  9.5974999999999984
  9.5974999999999984  3.8389999999999995  9.5974999999999984
  7.6779999999999990  3.8389999999999995 11.5169999999999977
  7.6779999999999990  3.8389999999999995 15.3559999999999981
  9.5974999999999984  3.8389999999999995 17.2754999999999974
  7.6779999999999990  7.6779999999999990  0.0000000000000000
  9.5974999999999984  7.6779999999999990  1.9194999999999998
  7.6779999999999990  7.6779999999999990  3.8389999999999995
  7.6779999999999990  9.5974999999999984  5.7584999999999997
  9.5974999999999984  7.6779999999999990 13.4364999999999970
  9.5974999999999984  9.5974999999999984 11.5169999999999977
  7.6779999999999990  7.6779999999999990 15.3559999999999981
  9.5974999999999984  7.6779999999999990 17.2754999999999974
  9.5974999999999984  7.6779999999999990 21.1144999999999960
  7.6779999999999990 11.5169999999999977  0.0000000000000000
  7.6779999999999990 13.4364999999999970  1.9194999999999998
  7.6779999999999990 11.5169999999999977  3.8389999999999995
  7.6779999999999990 13.4364999999999970  5.7584999999999997
  7.6779999999999990 11.5169999999999977  7.6779999999999990
  9.5974999999999984 11.5169999999999977  9.5974999999999984
  9.5974999999999984 11.5169999999999977 13.4364999999999970
  7.6779999999999990 13.4364999999999970 17.2754999999999974
  7.6779999999999990 17.2754999999999974  5.7584999999999997
  9.5974999999999984 15.3559999999999981  5.7584999999999997
  9.5974999999999984 17.2754999999999974  3.8389999999999995
  9.5974999999999984 15.3559999999999981  9.5974999999999984
  9.5974999999999984 17.2754999999999974  7.6779999999999990
  7.6779999999999990 15.3559999999999981 11.5169999999999977
  9.5974999999999984 15.3559999999999981 17.2754999999999974
  7.6779999999999990 19.1949999999999967  0.0000000000000000
  9.5974999999999984 19.1949999999999967  1.9194999999999998
  9.5974999999999984 21.1144999999999960  3.8389999999999995
  9.5974999999999984 19.1949999999999967  9.5974999999999984
  7.6779999999999990 19.1949999999999967 19.1949999999999967
  9.5974999999999984 19.1949999999999967 21.1144999999999960
 13.4364999999999970  0.0000000000000000  1.9194999999999998
 13.4364999999999970  0.0000000000000000  5.7584999999999997
 13.4364999999999970  1.9194999999999998  3.8389999999999995
 11.5169999999999977  1.9194999999999998  9.5974999999999984
 13.4364999999999970  1.9194999999999998 11.5169999999999977
 11.5169999999999977  0.0000000000000000 15.3559999999999981
 11.5169999999999977  1.9194999999999998 17.2754999999999974
 13.4364999999999970  1.9194999999999998 19.1949999999999967
 13.4364999999999970  5.7584999999999997  0.0000000000000000
 13.4364999999999970  5.7584999999999997  3.8389999999999995
 13.4364999999999970  3.8389999999999995  9.5974999999999984
 11.5169999999999977  3.8389999999999995 11.5169999999999977
 11.5169999999999977  3.8389999999999995 15.3559999999999981
 11.5169999999999977  3.8389999999999995 19.1949999999999967
 11.5169999999999977  5.7584999999999997 21.1144999999999960
 13.4364999999999970  5.7584999999999997 19.1949999999999967
 11.5169999999999977  7.6779999999999990  0.0000000000000000
 11.5169999999999977  9.5974999999999984  1.9194999999999998
 13.4364999999999970  7.6779999999999990  1.9194999999999998
 13.4364999999999970  7.6779999999999990  5.7584999999999997
 13.4364999999999970  9.5974999999999984 11.5169999999999977
 11.5169999999999977  7.6779999999999990 15.3559999999999981
 13.4364999999999970  9.5974999999999984 19.1949999999999967
 11.5169999999999977 11.5169999999999977  0.0000000000000000
 13.4364999999999970 11.5169999999999977  1.9194999999999998
 13.4364999999999970 13.4364999999999970  3.8389999999999995
 13.4364999999999970 13.4364999999999970  7.6779999999999990
 11.5169999999999977 13.4364999999999970 13.4364999999999970
 13.4364999999999970 11.5169999999999977 13.4364999999999970
 13.4364999999999970 13.4364999999999970 11.5169999999999977
 13.4364999999999970 11.5169999999999977 17.2754999999999974
 11.5169999999999977 13.4364999999999970 21.1144999999999960
 11.5169999999999977 15.3559999999999981  0.0000000000000000
 11.5169999999999977 17.2754999999999974  1.9194999999999998
 11.5169999999999977 15.3559999999999981  7.6779999999999990
 13.4364999999999970 15.3559999999999981 17.2754999999999974
 13.4364999999999970 17.2754999999999974 15.3559999999999981
 13.4364999999999970 21.1144999999999960  0.0000000000000000
 11.5169999999999977 21.1144999999999960 17.2754999999999974
 13.4364999999999970 19.1949999999999967 17.2754999999999974
 15.3559999999999981  0.0000000000000000  0.0000000000000000
 17.2754999999999974  1.9194999999999998  0.0000000000000000
 15.3559999999999981  0.0000000000000000 11.5169999999999977
 15.3559999999999981  1.9194999999999998 13.4364999999999970
 17.2754999999999974  0.0000000000000000 13.4364999999999970
 17.2754999999999974  0.0000000000000000 17.2754999999999974
 17.2754999999999974  0.0000000000000000 21.1144999999999960
 15.3559999999999981  3.8389999999999995  0.0000000000000000
 15.3559999999999981  3.8389999999999995  3.8389999999999995
 17.2754999999999974  3.8389999999999995  5.7584999999999997
 17.2754999999999974  5.7584999999999997  3.8389999999999995
 15.3559999999999981  5.7584999999999997 13.4364999999999970
 15.3559999999999981  3.8389999999999995 15.3559999999999981
 15.3559999999999981  5.7584999999999997 21.1144999999999960
 17.2754999999999974  3.8389999999999995 21.1144999999999960
 17.2754999999999974  7.6779999999999990  1.9194999999999998
 15.3559999999999981  9.5974999999999984  9.5974999999999984
 17.2754999999999974  9.5974999999999984 11.5169999999999977
 15.3559999999999981  7.6779999999999990 15.3559999999999981
 15.3559999999999981  7.6779999999999990 19.1949999999999967
 17.2754999999999974  7.6779999999999990 21.1144999999999960
 15.3559999999999981 11.5169999999999977 11.5169999999999977
 15.3559999999999981 13.4364999999999970 13.4364999999999970
 15.3559999999999981 13.4364999999999970 17.2754999999999974
 17.2754999999999974 13.4364999999999970 15.3559999999999981
 15.3559999999999981 17.2754999999999974  1.9194999999999998
 17.2754999999999974 15.3559999999999981 13.4364999999999970
 15.3559999999999981 17.2754999999999974 21.1144999999999960
 17.2754999999999974 15.3559999999999981 21.1144999999999960
 15.3559999999999981 19.1949999999999967  0.0000000000000000
 15.3559999999999981 21.1144999999999960  1.9194999999999998
 17.2754999999999974 19.1949999999999967  1.9194999999999998
 15.3559999999999981 19.1949999999999967  3.8389999999999995
 15.3559999999999981 19.1949999999999967  7.6779999999999990
 17.2754999999999974 21.1144999999999960  7.6779999999999990
 15.3559999999999981 21.1144999999999960 13.4364999999999970
 17.2754999999999974 21.1144999999999960 11.5169999999999977
 15.3559999999999981 21.1144999999999960 17.2754999999999974
 17.2754999999999974 21.1144999999999960 15.3559999999999981
 15.3559999999999981 21.1144999999999960 21.1144999999999960
 21.1144999999999960  0.0000000000000000  5.7584999999999997
 21.1144999999999960  1.9194999999999998  3.8389999999999995
 21.1144999999999960  1.9194999999999998  7.6779999999999990
 19.1949999999999967  0.0000000000000000 15.3559999999999981
 19.1949999999999967  0.0000000000000000 19.1949999999999967
 21.1144999999999960  0.0000000000000000 21.1144999999999960
 19.1949999999999967  3.8389999999999995  0.0000000000000000
 21.1144999999999960  3.8389999999999995  5.7584999999999997
 19.1949999999999967  3.8389999999999995  7.6779999999999990
 21.1144999999999960  5.7584999999999997  7.6779999999999990
 19.1949999999999967  5.7584999999999997 13.4364999999999970
 21.1144999999999960  5.7584999999999997 11.5169999999999977
 19.1949999999999967  5.7584999999999997 21.1144999999999960
 19.1949999999999967  9.5974999999999984  1.9194999999999998
 21.1144999999999960  7.6779999999999990  9.5974999999999984
 19.1949999999999967  7.6779999999999990 11.5169999999999977
 21.1144999999999960  9.5974999999999984 15.3559999999999981
 19.1949999999999967  7.6779999999999990 19.1949999999999967
 19.1949999999999967  9.5974999999999984 21.1144999999999960
 21.1144999999999960  9.5974999999999984 19.1949999999999967
 21.1144999999999960 11.5169999999999977  5.7584999999999997
 21.1144999999999960 13.4364999999999970  3.8389999999999995
 19.1949999999999967 13.4364999999999970  9.5974999999999984
 21.1144999999999960 13.4364999999999970  7.6779999999999990
 19.1949999999999967 11.5169999999999977 15.3559999999999981
 19.1949999999999967 13.4364999999999970 17.2754999999999974
 21.1144999999999960 11.5169999999999977 17.2754999999999974
 21.1144999999999960 13.4364999999999970 15.3559999999999981
 21.1144999999999960 15.3559999999999981  1.9194999999999998
 21.1144999999999960 17.2754999999999974  0.0000000000000000
 21.1144999999999960 15.3559999999999981  5.7584999999999997
 21.1144999999999960 17.2754999999999974  3.8389999999999995
 19.1949999999999967 17.2754999999999974  9.5974999999999984
 21.1144999999999960 15.3559999999999981  9.5974999999999984
 19.1949999999999967 17.2754999999999974 17.2754999999999974
 21.1144999999999960 15.3559999999999981 17.2754999999999974
 21.1144999999999960 17.2754999999999974 15.3559999999999981
 19.1949999999999967 19.1949999999999967  0.0000000000000000
 21.1144999999999960 19.1949999999999967  1.9194999999999998
 21.1144999999999960 21.1144999999999960  0.0000000000000000
 21.1144999999999960 21.1144999999999960  7.6779999999999990
 19.1949999999999967 19.1949999999999967 11.5169999999999977
 21.1144999999999960 21.1144999999999960 11.5169999999999977
 19.1949999999999967 19.1949999999999967 15.3559999999999981
 21.1144999999999960 19.1949999999999967 17.2754999999999974
 21.1144999999999960 19.1949999999999967 21.1144999999999960
 21.1144999999999960 21.1144999999999960 19.1949999999999967
  3.8389999999999995 13.4364999999999970 17.2754999999999974
  0.0000000000000000 15.3559999999999981 15.3559999999999981
  1.9194999999999998  5.7584999999999997  3.8389999999999995
 13.4364999999999970 17.2754999999999974  0.0000000000000000
  7.6779999999999990  5.7584999999999997 21.1144999999999960
 19.1949999999999967 11.5169999999999977  7.6779999999999990
 11.5169999999999977  9.5974999999999984 13.4364999999999970
 19.1949999999999967  1.9194999999999998  9.5974999999999984
 15.3559999999999981  9.5974999999999984  1.9194999999999998
  9.5974999999999984 21.1144999999999960 19.1949999999999967
  9.5974999999999984 19.1949999999999967 13.4364999999999970
 11.5169999999999977  7.6779999999999990  7.6779999999999990
  9.5974999999999984  7.6779999999999990  5.7584999999999997
 11.5169999999999977 11.5169999999999977 15.3559999999999981
  9.5974999999999984  3.8389999999999995 21.1144999999999960
  1.9194999999999998  5.7584999999999997  7.6779999999999990
 15.3559999999999981 11.5169999999999977 15.3559999999999981
 13.4364999999999970 17.2754999999999974 11.5169999999999977
  1.9194999999999998 19.1949999999999967 13.4364999999999970
  3.8389999999999995 15.3559999999999981  3.8389999999999995
 21.1144999999999960 19.1949999999999967  9.5974999999999984
 19.1949999999999967 21.1144999999999960 21.1144999999999960
  5.7584999999999997  1.9194999999999998 15.3559999999999981
  9.5974999999999984  5.7584999999999997 11.5169999999999977
 17.2754999999999974 17.2754999999999974 11.5169999999999977
 11.5169999999999977 19.1949999999999967  3.8389999999999995
 19.1949999999999967 15.3559999999999981 15.3559999999999981
 17.2754999999999974 11.5169999999999977  5.7584999999999997
  1.9194999999999998  5.7584999999999997 11.5169999999999977
  3.8389999999999995 19.1949999999999967  0.0000000000000000
 11.5169999999999977 13.4364999999999970 17.2754999999999974
 21.1144999999999960  7.6779999999999990  1.9194999999999998
  0.0000000000000000  3.8389999999999995  0.0000000000000000
 15.3559999999999981 17.2754999999999974  5.7584999999999997
  5.7584999999999997  7.6779999999999990 21.1144999999999960
  7.6779999999999990 21.1144999999999960  1.9194999999999998
  3.8389999999999995 21.1144999999999960 21.1144999999999960
 17.2754999999999974 17.2754999999999974  7.6779999999999990
  5.7584999999999997 13.4364999999999970 15.3559999999999981
  3.8389999999999995  7.6779999999999990 15.3559999999999981
  0.0000000000000000  5.7584999999999997  1.9194999999999998
 21.1144999999999960  9.5974999999999984  7.6779999999999990
 11.5169999999999977  5.7584999999999997 13.4364999999999970
 15.3559999999999981  0.0000000000000000  3.8389999999999995
 19.1949999999999967 19.1949999999999967  7.6779999999999990
  0.0000000000000000  7.6779999999999990  7.6779999999999990
  0.0000000000000000 13.4364999999999970 17.2754999999999974
  0.0000000000000000 19.1949999999999967 15.3559999999999981
  0.0000000000000000  1.9194999999999998 21.1144999999999960
  7.6779999999999990  9.5974999999999984  1.9194999999999998
  3.8389999999999995  9.5974999999999984  5.7584999999999997
  7.6779999999999990  0.0000000000000000  0.0000000000000000
 17.2754999999999974 19.1949999999999967 17.2754999999999974
 15.3559999999999981  7.6779999999999990  7.6779999999999990
  0.0000000000000000 13.4364999999999970  1.9194999999999998
  5.7584999999999997 19.1949999999999967  9.5974999999999984
 11.5169999999999977 19.1949999999999967 19.1949999999999967
 15.3559999999999981 21.1144999999999960  5.7584999999999997
  9.5974999999999984 19.1949999999999967 17.2754999999999974
 19.1949999999999967  1.9194999999999998 21.1144999999999960
  7.6779999999999990  9.5974999999999984  9.5974999999999984
  1.9194999999999998  3.8389999999999995 17.2754999999999974
  5.7584999999999997 21.1144999999999960 15.3559999999999981
 15.3559999999999981  9.5974999999999984 13.4364999999999970
 13.4364999999999970  7.6779999999999990 21.1144999999999960
  1.9194999999999998  1.9194999999999998 15.3559999999999981
 13.4364999999999970 19.1949999999999967 21.1144999999999960
  0.0000000000000000 13.4364999999999970 13.4364999999999970
 13.4364999999999970 15.3559999999999981 21.1144999999999960
 15.3559999999999981 11.5169999999999977  0.0000000000000000
 11.5169999999999977  7.6779999999999990 11.5169999999999977
 11.5169999999999977  3.8389999999999995  3.8389999999999995
  5.7584999999999997 19.1949999999999967 17.2754999999999974
 11.5169999999999977  5.7584999999999997  9.5974999999999984
  0.0000000000000000 11.5169999999999977  0.0000000000000000
  7.6779999999999990  7.6779999999999990  7.6779999999999990
  9.5974999999999984  5.7584999999999997  7.6779999999999990
 11.5169999999999977  1.9194999999999998  1.9194999999999998
 13.4364999999999970  5.7584999999999997 11.5169999999999977
  0.0000000000000000 19.1949999999999967  7.6779999999999990
  9.5974999999999984 15.3559999999999981 21.1144999999999960
 17.2754999999999974 15.3559999999999981  1.9194999999999998
 17.2754999999999974  3.8389999999999995 17.2754999999999974
 17.2754999999999974  7.6779999999999990 17.2754999999999974
  3.8389999999999995  7.6779999999999990  0.0000000000000000
 17.2754999999999974  3.8389999999999995 13.4364999999999970
 17.2754999999999974 21.1144999999999960  0.0000000000000000
 15.3559999999999981 15.3559999999999981 15.3559999999999981
 15.3559999999999981  0.0000000000000000 19.1949999999999967
  1.9194999999999998  7.6779999999999990 21.1144999999999960
 19.1949999999999967  1.9194999999999998  1.9194999999999998
  5.7584999999999997 11.5169999999999977 21.1144999999999960
  3.8389999999999995  5.7584999999999997 13.4364999999999970
 15.3559999999999981 13.4364999999999970 21.1144999999999960
  0.0000000000000000  9.5974999999999984 21.1144999999999960
 19.1949999999999967  3.8389999999999995 15.3559999999999981
  9.5974999999999984 21.1144999999999960 11.5169999999999977
 17.2754999999999974 17.2754999999999974 19.1949999999999967
  9.5974999999999984 21.1144999999999960 15.3559999999999981
  1.9194999999999998 21.1144999999999960 11.5169999999999977
 17.2754999999999974  3.8389999999999995  9.5974999999999984
 17.2754999999999974 15.3559999999999981 17.2754999999999974
  9.5974999999999984  3.8389999999999995  1.9194999999999998
  7.6779999999999990 19.1949999999999967  7.6779999999999990
  9.5974999999999984 13.4364999999999970 15.3559999999999981
  3.8389999999999995  0.0000000000000000 19.1949999999999967
 11.5169999999999977  0.0000000000000000  7.6779999999999990
  1.9194999999999998 19.1949999999999967  9.5974999999999984
 15.3559999999999981 11.5169999999999977  3.8389999999999995
  5.7584999999999997 17.2754999999999974 19.1949999999999967
  9.5974999999999984 11.5169999999999977 21.1144999999999960
  9.5974999999999984  7.6779999999999990  9.5974999999999984
  1.9194999999999998  1.9194999999999998 11.5169999999999977
  9.5974999999999984 13.4364999999999970  7.6779999999999990
  1.9194999999999998  1.9194999999999998  0.0000000000000000
 19.1949999999999967 15.3559999999999981  3.8389999999999995
  0.0000000000000000  9.5974999999999984  1.9194999999999998
  1.9194999999999998 17.2754999999999974  7.6779999999999990
  9.5974999999999984  9.5974999999999984 15.3559999999999981
 11.5169999999999977  9.5974999999999984  9.5974999999999984
 19.1949999999999967  9.5974999999999984  9.5974999999999984
  1.9194999999999998 19.1949999999999967  1.9194999999999998
  9.5974999999999984 13.4364999999999970 11.5169999999999977
  9.5974999999999984 19.1949999999999967  5.7584999999999997
  3.8389999999999995  5.7584999999999997  9.5974999999999984
 21.1144999999999960 19.1949999999999967  5.7584999999999997
  7.6779999999999990  9.5974999999999984 17.2754999999999974
  0.0000000000000000  1.9194999999999998  1.9194999999999998
 13.4364999999999970 15.3559999999999981  9.5974999999999984
  0.0000000000000000  7.6779999999999990  3.8389999999999995
 17.2754999999999974 11.5169999999999977 17.2754999999999974
  3.8389999999999995 13.4364999999999970 13.4364999999999970
 21.1144999999999960 11.5169999999999977  9.5974999999999984
  9.5974999999999984  5.7584999999999997 19.1949999999999967
 11.5169999999999977 19.1949999999999967 11.5169999999999977
  9.5974999999999984  1.9194999999999998  3.8389999999999995
  1.9194999999999998  5.7584999999999997 15.3559999999999981
 19.1949999999999967  0.0000000000000000  7.6779999999999990
 11.5169999999999977  5.7584999999999997  1.9194999999999998
  1.9194999999999998 15.3559999999999981 21.1144999999999960
 11.5169999999999977  5.7584999999999997 17.2754999999999974
 13.4364999999999970  3.8389999999999995 21.1144999999999960
 17.2754999999999974 19.1949999999999967  9.5974999999999984
 11.5169999999999977 15.3559999999999981  3.8389999999999995
 13.4364999999999970  0.0000000000000000 13.4364999999999970
 13.4364999999999970  7.6779999999999990  9.5974999999999984
  5.7584999999999997  0.0000000000000000  5.7584999999999997
  1.9194999999999998 11.5169999999999977 17.2754999999999974
 17.2754999999999974 11.5169999999999977  9.5974999999999984
 15.3559999999999981 19.1949999999999967 19.1949999999999967
  7.6779999999999990  7.6779999999999990 19.1949999999999967
 15.3559999999999981 17.2754999999999974  9.5974999999999984
 19.1949999999999967  7.6779999999999990  3.8389999999999995
  3.8389999999999995 17.2754999999999974 21.1144999999999960
 11.5169999999999977 19.1949999999999967  0.0000000000000000
  5.7584999999999997  3.8389999999999995  5.7584999999999997
  0.0000000000000000 17.2754999999999974  5.7584999999999997
 21.1144999999999960  9.5974999999999984  3.8389999999999995
  1.9194999999999998 15.3559999999999981  9.5974999999999984
  0.0000000000000000 17.2754999999999974  1.9194999999999998
 13.4364999999999970 11.5169999999999977  5.7584999999999997
  3.8389999999999995  0.0000000000000000 11.5169999999999977
  5.7584999999999997  1.9194999999999998 19.1949999999999967
 13.4364999999999970 15.3559999999999981 13.4364999999999970
  9.5974999999999984  9.5974999999999984 19.1949999999999967
  5.7584999999999997 13.4364999999999970  3.8389999999999995
 19.1949999999999967 17.2754999999999974  5.7584999999999997
 11.5169999999999977 11.5169999999999977  7.6779999999999990
  7.6779999999999990 11.5169999999999977 19.1949999999999967
 15.3559999999999981  5.7584999999999997  1.9194999999999998
  7.6779999999999990 21.1144999999999960 17.2754999999999974
 11.5169999999999977 17.2754999999999974  5.7584999999999997
  3.8389999999999995  3.8389999999999995 19.1949999999999967
 19.1949999999999967 21.1144999999999960 17.2754999999999974
  7.6779999999999990  0.0000000000000000 15.3559999999999981
  7.6779999999999990 17.2754999999999974 17.2754999999999974
 13.4364999999999970 21.1144999999999960  7.6779999999999990
  1.9194999999999998 13.4364999999999970 19.1949999999999967
  3.8389999999999995 21.1144999999999960  1.9194999999999998
  0.0000000000000000 21.1144999999999960 21.1144999999999960
  7.6779999999999990 19.1949999999999967  3.8389999999999995
  0.0000000000000000 11.5169999999999977  3.8389999999999995
 13.4364999999999970 13.4364999999999970 15.3559999999999981
 19.1949999999999967  9.5974999999999984 17.2754999999999974
 15.3559999999999981 11.5169999999999977 19.1949999999999967
 11.5169999999999977 15.3559999999999981 11.5169999999999977
 11.5169999999999977 17.2754999999999974  9.5974999999999984
 19.1949999999999967  3.8389999999999995 11.5169999999999977
 17.2754999999999974  7.6779999999999990  9.5974999999999984
 11.5169999999999977 13.4364999999999970  5.7584999999999997
 21.1144999999999960 17.2754999999999974  7.6779999999999990
 15.3559999999999981  1.9194999999999998  5.7584999999999997
  3.8389999999999995  3.8389999999999995  0.0000000000000000
 15.3559999999999981  7.6779999999999990 11.5169999999999977
 21.1144999999999960  1.9194999999999998 19.1949999999999967
  7.6779999999999990 15.3559999999999981  7.6779999999999990
 19.1949999999999967 19.1949999999999967  3.8389999999999995
  1.9194999999999998 13.4364999999999970  7.6779999999999990
 17.2754999999999974  1.9194999999999998  7.6779999999999990
  1.9194999999999998 11.5169999999999977  5.7584999999999997
  9.5974999999999984  9.5974999999999984  3.8389999999999995
 21.1144999999999960  3.8389999999999995 17.2754999999999974
 21.1144999999999960  3.8389999999999995  9.5974999999999984
 17.2754999999999974  5.7584999999999997 19.1949999999999967
  7.6779999999999990 19.1949999999999967 11.5169999999999977
  3.8389999999999995 15.3559999999999981 19.1949999999999967
  5.7584999999999997  7.6779999999999990  9.5974999999999984
 19.1949999999999967 17.2754999999999974  1.9194999999999998
 19.1949999999999967 21.1144999999999960  9.5974999999999984
  0.0000000000000000 13.4364999999999970  9.5974999999999984
 13.4364999999999970 13.4364999999999970  0.0000000000000000
  0.0000000000000000 15.3559999999999981  3.8389999999999995
  7.6779999999999990 21.1144999999999960 21.1144999999999960
  1.9194999999999998  0.0000000000000000  5.7584999999999997
  7.6779999999999990 11.5169999999999977 15.3559999999999981
  5.7584999999999997  3.8389999999999995 13.4364999999999970
 19.1949999999999967  1.9194999999999998 17.2754999999999974
 13.4364999999999970 21.1144999999999960 15.3559999999999981
 15.3559999999999981 15.3559999999999981 19.1949999999999967
 13.4364999999999970 19.1949999999999967 13.4364999999999970
  9.5974999999999984 17.2754999999999974 15.3559999999999981
  9.5974999999999984 11.5169999999999977  5.7584999999999997
 21.1144999999999960 11.5169999999999977 21.1144999999999960
  9.5974999999999984  0.0000000000000000  9.5974999999999984
  5.7584999999999997 13.4364999999999970 11.5169999999999977
 11.5169999999999977  5.7584999999999997  5.7584999999999997
 21.1144999999999960  5.7584999999999997  3.8389999999999995