Co Mo                                   
   1.00000000000000     
    23.3918151465604396   -0.0305199526727469    0.0219144239331081
    -0.0304501913391109   23.2120614545397075    0.0221280593089393
     0.0232965744440181    0.0236989438247072   21.8350435702668939
   Co   Mo
   260   604
Direct
 -0.0024559995192664 -0.0008497719413421  0.3254713347007570
 -0.0022243152804851 -0.0049597851234041  0.5005934247051479
  0.0006559094913159  0.0804702699933587  0.5926049270041487
  0.0018791469387136  0.0011926168972266  0.6775163843629568
  0.0924742427976517  0.0912796508217540  0.8398004360624773
  0.0887679136326014  0.1574540373037474  0.0813990031149907
  0.0052084869958056  0.1555645784147754  0.1648595133851004
  0.0040376067298258  0.2568068564105939  0.5834394285399104
  0.0069467634618861  0.1664285975797785  0.6721178609308981
  0.0104318018275001  0.2448519102676701  0.7502952691405732
  0.0953455299963641  0.2451370155973606  0.8314231956601292
  0.0922589094773008  0.3321667290441405  0.2501755892484602
  0.0939172869815302  0.4226185565369955  0.1745604935696020
  0.0052228427511813  0.4142011815587119  0.4108871165375799
  0.0912305897447049  0.4115640587388220  0.3310519422186917
  0.0823907245582535  0.3368604192167974  0.5811980726273012
  0.0847885765703523  0.4174691902848820  0.4961792791209907
  0.0952151068449540  0.5853325913792213  0.0056069947172337
  0.0903084481837639  0.5801230509325284  0.1735932902852235
 -0.0000683191838561  0.4982850610235356  0.4914754073071124
 -0.0090241898191711  0.6693653065604567  0.3272822411556549
  0.0761986916661324  0.6665107632868200  0.7471786977785481
  0.0866994648399958  0.9096403822851775 -0.0054888199556506
 -0.0011824595101546  0.9237278417288363  0.2489873379912642
  0.0865130380640152  0.9293690123627016  0.1644418444982478
 -0.0011128742599815  0.9228875877366003  0.4143860362218227
  0.0048570416303553  0.9220373970512739  0.7560752464492574
  0.0779748207689955  0.8349962680684332  0.7509331580317024
  0.0829702871616000  0.8305783242647156  0.9181300510829498
  0.1875552929987123  0.0051723983137531 -0.0056988145821195
  0.1739259894164644  0.0824455520455940  0.0800307126333471
  0.1644798800263964  0.0016103691832707  0.1670988095664328
  0.1682282272907533  0.0804431275861628  0.2500924180681114
  0.2434007860518608  0.0849177875616509  0.1631980813435610
  0.1708780424462401  0.0016157883888444  0.3294905136696764
  0.2488517815911790  0.0043666816038844  0.4167385141810147
  0.2488077675942785  0.0835527487160336  0.4989089035284232
  0.1629823938711093  0.0089176024574848  0.6724005558906989
  0.1630172912451094  0.0909369053887264  0.7510005225352061
  0.1750249717996012  0.0874332477939987  0.9128474140203731
  0.1759231001540081  0.2478066270002983  0.0914697373333826
  0.2524858936210631  0.2485280337056503  0.0041544830351965
  0.1703358074579322  0.1598717014909059  0.1596787853081041
  0.2555567934705139  0.2524322544036761  0.1679233484365771
  0.1719020454150165  0.1600767763644503  0.3310465487704284
  0.1683918589656470  0.1632685916101677  0.5008679517153486
  0.2502059992641870  0.2463443129070760  0.5023287568605288
  0.1612290328371737  0.1668764015271387  0.6670803827314493
  0.1704790932374372  0.2450707032925138  0.7461458148851399
  0.2519376517294187  0.1731998573437636  0.7505074771461087
  0.1812284447623970  0.2476106638514420  0.9163409797441986
  0.2516242673813152  0.1676278737094305  0.9121649336547986
  0.2544832796584017  0.2468844668153466  0.8314728425165658
  0.2545179337422305  0.4138229815040713  0.0057698540922926
  0.2558715792080032  0.3354769319143134  0.2477039172929491
  0.2620548907541871  0.4116608072456219  0.1678365567571132
  0.1705186082598313  0.4138115099666363  0.4178478349035020
  0.2557708244793239  0.4178604004720459  0.3321416040543950
  0.2517194737371678  0.3326334766794246  0.5804440357018396
  0.2521812018765627  0.4188771862632134  0.4988243115566798
  0.2507520078670253  0.4122878473346358  0.6604262248914029
  0.2667491044325917  0.4114529850860097  0.8303776841104941
  0.1677622432404022  0.5833827298717872  0.0930273734716597
  0.1702284459424544  0.5059004848449252  0.1738506240672914
  0.2586334840546404  0.4964360465857075  0.2476636306689392
  0.2557988291715624  0.4954457871958542  0.4154817302931569
  0.2486465877552002  0.4978182450284884  0.5804252012803984
  0.1685682031715795  0.7548813748226124  0.0956432827703863
  0.2425100023255637  0.6756476798707233  0.0934605808451701
  0.2610341953636477  0.6656978674619042  0.2437795116229268
  0.2562414954970829  0.7556879444688066  0.4980052269349214
  0.2570903364138572  0.6656018468756628  0.7439632385633851
  0.2480401244754282  0.8385158028368306  0.0890706709878482
  0.1735357371123623  0.8409817055817657  0.1720117374201184
  0.1693919128530248  0.9212366747307743  0.2451022675121367
  0.2448631865371784  0.8475593826186610  0.2499043676397385
  0.2479082468776015  0.9183801855883155  0.1697186433250291
  0.1684282262637585  0.8440513146291941  0.3274284885794014
  0.2533822883765554  0.9189899025931719  0.5092630017815475
  0.2511243376292902  0.8292579360390606  0.9142360446545510
  0.4056589380045085 -0.0019196691299891  0.0842937187535378
  0.3302823354066104 -0.0038917249830916  0.1648497980682387
  0.3231857820932310  0.0861286364387311  0.2433956702197547
  0.3246145806935442  0.0071401870443241  0.3306647603772674
  0.3220513428706943  0.0847603578792422  0.4166135700601321
  0.4097434217549648  0.0059099608651440  0.5803885044392230
  0.4128994818334712  0.0843374333687194  0.4995277471371037
  0.3378062863826343  0.0950631213799941  0.7510088743673189
  0.4210094016835545  0.0128238602485150  0.7585283609152353
  0.3365046057103498  0.0146345953159753  0.8234624073120700
  0.3314980876451053  0.0937219287178322  0.9143542035891123
  0.4135263605902118  0.0967120157754720  0.8331993135036281
  0.3243252324741919  0.1680800436699204  0.0007626649021077
  0.3311577098261323  0.2518633743616594  0.0857395786823516
  0.3306957192623309  0.1671704139011295  0.1655064609132466
  0.4077387235570534  0.1698471583621572  0.2413379647188069
  0.4067321924730103  0.2482856525077964  0.1637021023650609
  0.3186916390958460  0.1665784427818070  0.3353339662337803
  0.3237642368226789  0.2438281927734743  0.4176807860327548
  0.4035597412264980  0.1522073118264073  0.4196089692693565
  0.3299343812578671  0.1625546860634476  0.4997269004836584
  0.3370429979256608  0.1629922448477613  0.6698088263110615
  0.4165355167898988  0.1725282161403760  0.7456874068586752
  0.3283313065295763  0.3289369560672623  0.0077170728678689
  0.4090708646885857  0.3283285403319600  0.0926397260521722
  0.3305566536226995  0.3293809530509709  0.1681055494380459
  0.3260893727698191  0.4133156779046245  0.2499669306224007
  0.4174125560407231  0.3328002892549567  0.5779591974357535
  0.4161904634731461  0.4181450855751767  0.4978273671352027
  0.3344708947599530  0.3257675296094960  0.6588073988203311
  0.4191647630249469  0.3251391496926785  0.7437058422405221
  0.4159168107406820  0.3271861775017099  0.9149474014724188
  0.3352771194399666  0.4920484615085379  0.0119609940352512
  0.3395992760618856  0.5716624962394292  0.0888394814155264
  0.3291104545048249  0.4942395182523743  0.1690511710488632
  0.3326946459676126  0.5853059396122775  0.2410341433876659
  0.3314697720504792  0.4935101420750009  0.3271503669296321
  0.4126627521600921  0.4938564741175959  0.4120054856034632
  0.4218003147225818  0.4971860082904101  0.5811649670703638
  0.3364854353857023  0.5861699133627436  0.7421383118915723
  0.3452766121658662  0.7448586846515909  0.2424607465324523
  0.4172210423484309  0.6704730564578035  0.2463691605174902
  0.4153935793787862  0.7508389554629846  0.1607542415585216
  0.4131598135186360  0.6620897632053476  0.4109456473346355
  0.4102367070131138  0.7457601340416752  0.3328117155332178
  0.3460761759525642  0.6637614087399684  0.4984363504496284
  0.4220395641308171  0.6620884583613655  0.7508206709007705
  0.3288837132877829  0.8340242874750168  0.0016148067597564
  0.4104194003216317  0.8415765424411447  0.0841994945454327
  0.4104087817527093  0.9232360188845693  0.1685195178326002
  0.4093951735527885  0.8310300806294475  0.4130548691671312
  0.3351119087359625  0.8323505359263529  0.8240957301121871
  0.4100534472283546  0.8370557091444927  0.9114990591806521
  0.5847967261015848 -0.0023432468449259  0.0775054634447003
  0.5762399801030701  0.0020326918538836  0.2514597991081578
  0.5716989125588235  0.0757974586290860  0.1592607453820115
  0.4959276187431708  0.0915874596030265  0.4233935532887995
  0.5769179197425151  0.0820795259667991  0.5043030733962047
  0.4992930769239746  0.0121758403262309  0.6826070713725274
  0.4936843785320672  0.0938821516678930  0.7612549192128752
  0.5862155159783128  0.0905356461478908  0.8552088284096229
  0.5834130637919328  0.2493198111227551  0.0027083620133746
  0.5784481205623432  0.2511887456810863  0.1623383232010287
  0.5798096041615106  0.1549531247788904  0.4299784546178004
  0.4966065637645884  0.1547576813007017  0.5030255219824580
  0.4982454358275219  0.1643681577750135  0.6668862027296598
  0.5002275280451594  0.1667625101236437  0.8412547053741632
  0.4964750702720180  0.2485563406761689  0.9213794912276475
  0.5782834637353607  0.2447472948463296  0.8337277569461568
  0.5017756675766473  0.3269346287397021 -0.0046186569983522
  0.4942976808390508  0.4047955119698362  0.0872370674959232
  0.5761247916513091  0.3275895121701481  0.0774164605286326
  0.5786951032164863  0.3187027052090212  0.2550911918610840
  0.5789484076837852  0.4212873169997660  0.4967073441534760
  0.5000960816570250  0.3300590306204301  0.6609327260503954
  0.5781647980997144  0.4069195254380524  0.8368322229663345
  0.4958842548073892  0.4926126200646043 -0.0011463337616715
  0.5713564422287143  0.4882865223726089  0.0766780390619576
  0.5755626783783647  0.5922776893025160  0.1643662345929723
  0.5784130350911975  0.5861080222786574  0.3317134403979631
  0.5016133823293633  0.5726319743381671  0.5826987260756183
  0.5849757994319503  0.4985934058912601  0.5823362395421052
  0.5844453947676264  0.5754031750003802  0.5091542212950046
  0.5839401028359643  0.4944604403415619  0.7568715510917526
  0.4929430851853503  0.5749337186024284  0.9173964628722082
  0.4942422242967551  0.6682100108737202 -0.0108785514498106
  0.4931582080928217  0.7600664312848285  0.0778773259927050
  0.4981912108802146  0.6603575926940175  0.3359764837247324
  0.5939215644770983  0.6635558017258153  0.7530479487611504
  0.5831518270073576  0.7484880437397171  0.6696241922887979
  0.5849991760959401  0.9238010978679309 -0.0009380788536096
  0.4956194740760771  0.9367678508546119  0.7644220130631654
  0.6001532627287143  0.8310945241024739  0.7487340618686597
  0.6639149339002647 -0.0020556161417868 -0.0000436138377433
  0.7384205603852154  0.0817039711707710  0.0040106837569531
  0.6719787442031240  0.0012920317930009  0.5030589731378597
  0.6619987141720836  0.0714432964324080  0.5892447329876099
  0.7441645120342439 -0.0085266684278237  0.5889457110861991
  0.7548216888807523 -0.0026328017057203  0.7514194104386068
  0.7450223948757446 -0.0017510307417340  0.9222550038681312
  0.6611047460474164  0.1691511157577262 -0.0042473747166089
  0.6658379639105263  0.1787598975998329  0.1606407396529404
  0.7412463782254163  0.1729663782288936  0.2418240003008726
  0.7465546913670028  0.2471473987130714  0.1687025648085407
  0.6646913733526815  0.2530643729113226  0.5713186083420556
  0.6640468492479186  0.1643632293757326  0.6535075584127685
  0.6604451369975697  0.2496322876071806  0.9201284689583006
  0.7497791064280499  0.1668701809036311  0.9248801332189995
  0.7519527746588640  0.3270817093793442  0.0933783597814626
  0.6632814012141905  0.4228178668200328  0.4195981412695406
  0.7426480547199972  0.4246560475459172  0.4951877315446687
  0.6572257209982431  0.3305931262583572  0.6580218582372960
  0.6586347395981557  0.3222390402009467  0.8371797940030153
  0.7498822031905475  0.3361005852123476  0.9194412672287806
  0.6630824591390408  0.4986532745524110  0.5008751359086686
  0.6637039113492147  0.5695618179454750  0.5828105948840561
  0.6682241918029241  0.5851392571762758  0.7535528329538609
  0.7501322531108868  0.5768605463104168  0.6640950505559263
  0.6617052482460947  0.7616323440662787  0.0774534628022742
  0.7518735336431298  0.6631359928749082  0.5927584230049825
  0.6708678620161396  0.7522949318197132  0.9248059026518345
  0.7502103400808376  0.6719728756863594  0.9295353148206992
  0.6661764133183956  0.8404800685028003 -0.0000979462154687
  0.6609206931994884  0.9200030401524502  0.0803155293697767
  0.7441017360059119  0.8418910761909618  0.0807815870418014
  0.6632875920340960  0.8380623443101280  0.1601017846981355
  0.6757788174362130  0.8354711595731402  0.3405077862768981
  0.7488057869631426  0.9219644936746590  0.3288576489271303
  0.6646869880192904  0.9262880586481503  0.5826028474537900
  0.7461226793124964  0.9261743943189928  0.5046256267774756
  0.6763497209692355  0.9120759191591805  0.7498088630864265
  0.7563020772435484  0.9216995091839848  0.6724981416602587
  0.6670235096551138  0.9202441234855271  0.9190194797723493
  0.9216558087363075  0.0010666712804260  0.2491375630658467
  0.9206460101454539  0.0854278395810979  0.1655011464996506
  0.9223879720387180  0.0784260043223413  0.3290312023494505
  0.8357299554394907 -0.0074059520152777  0.6751960192649863
  0.8253891121840408  0.0023776014811725  0.8393847412899987
  0.9114255428203183 -0.0027027782299402  0.9107257730284426
  0.8293835421650603  0.1740678969628066 -0.0037094570170878
  0.9238879789839693  0.1657029241250865  0.2464724329071676
  0.8467405975676402  0.1626629477082601  0.3346999124467848
  0.9201740702830250  0.2477009671124861  0.3260153803177799
  0.8413443490670820  0.2532528512624367  0.5777742268156826
  0.9203232322139460  0.2529459363515774  0.5002372463546998
  0.8296843205618192  0.2556104884952870  0.9203306083714645
  0.8300104587223686  0.4049373343410285  0.0974987625090302
  0.9205803540935473  0.3275840550636366  0.4115706010080276
  0.8447035931052014  0.3276253250070685  0.4967015301342942
  0.9150271809874657  0.4144094823753026  0.6690985758346332
  0.8288515867720061  0.3276308323077450  0.8360452956826930
  0.8290889264098583  0.4055504653262472  0.9166811705795017
  0.9053629730781384  0.4124243783711388  0.8364909016648882
  0.9129059589484241  0.5072237890200720  0.2478278047616177
  0.9227851482292645  0.5813136852049831  0.1600080382653311
  0.8362421097862246  0.5822182964373864  0.4171913587051183
  0.9118223767223719  0.5856926995560299  0.3310306608063014
  0.8360588530778185  0.4924089813311959  0.6710460154758475
  0.8341232232704733  0.5787662747637162  0.7437211843404761
  0.9092286237630154  0.4951213548137076  0.7498703554844621
  0.9129058703071210  0.5745058626424533  0.6714731185001943
  0.9224807317692537  0.6662491585645859  0.0797872871093294
  0.9223802797035378  0.7563208653753405  0.0048118099003465
  0.9157076353759069  0.6682446035516875  0.2447977479431659
  0.9156512034293144  0.7532591915207677  0.1660146960104739
  0.8214177602319627  0.7487123767528353  0.4076924318802710
  0.9069273214402541  0.6637858463844302  0.4109243979223180
  0.8315062446824416  0.7542141747549830  0.7454728949676976
  0.9083748424980910  0.6671091110258032  0.7498769970686571
  0.9117239266712810  0.7571882033343328  0.6754201973139843
  0.8335075636362930  0.8434691678779395  0.0005202515020477
  0.9164502220253242  0.8394667297938703  0.0816810538495955
  0.9126727162009141  0.9143893111973452  0.0031225404175093
  0.9189843044459072  0.9254674396354132  0.3255905973256027
  0.8314364202655382  0.8479957385864426  0.5037529822709271
  0.9176737564854037  0.9227207716383250  0.4995781224090529
  0.8363690030008063  0.8388387550045852  0.6718350751785431
  0.9054151109983987  0.8309689947942596  0.7510802408751550
  0.9122417371408035  0.8333074841236303  0.9243487568512407
  0.9167218551577090  0.9098760092769291  0.8345730936142007
  0.1729149605162752  0.5886366383216556  0.7409769965631909
 -0.0109520116232209  0.6693589356148538  0.6720306750125097
  0.0938807667052337  0.2366902537898105  0.1617218321763566
  0.5773018922246675  0.7611117034311381 -0.0090822798298732
  0.3266759589973439  0.2476442454655978  0.9238107370955903
  0.8367974713606273  0.5064213896895398  0.3330066143302518
  0.4972461063288409  0.4121222688057891  0.5819819773335954
  0.8443142607948708  0.0728596004544268  0.4141705902492731
  0.6575801882724152  0.4022023138967380  0.0920246882443285
  0.4101185084744743  0.9207580516005808  0.8315031887948856
  0.4333494443112085  0.8390584127793116  0.5929316278555709
  0.5001074479505127  0.3212090072405610  0.3406388378891768
  0.4046247808502978  0.3193548537985105  0.2603719873119272
  0.5015917923154126  0.4968134584423289  0.6672250044852899
  0.4132018458983540  0.1658554450848980  0.9287836596379497
  0.0958387707759509  0.2473915501093612  0.3270660416218621
  0.6666054574943739  0.5048761950969943  0.6762967702095004
  0.5785238650780337  0.7508639100914739  0.4930115032689892
  0.0786039275239316  0.8282385815418584  0.5737359245408648
  0.1733145087017552  0.6634432475022720  0.1757606789986419
  0.9032893132638106  0.8480045139962303  0.4106584636398102
  0.8429467212999909  0.9193386142902784  0.9173367685051621
  0.2461509919596514  0.0974341935634440  0.6792975220140354
  0.4070252959146771  0.2390566488003984  0.4936155648334990
  0.7627237021500386  0.7481937623954018  0.5120601919419243
  0.4896375534188592  0.8345074236916266  0.1592815336365200
  0.8392346426742523  0.6638769274219563  0.6732737504953469
  0.7435892288171491  0.5060872307711407  0.2381065267330280
  0.0877561068837132  0.2474474775985224  0.5084040703422766
  0.1640883838449261  0.8310311432587972 -0.0011485292638307
  0.5050561968314754  0.5807300142656554  0.7638340460291734
  0.9148740432182544  0.3365157687828392  0.1017445937454291
  0.0085935733242899  0.1665121823554796 -0.0074525775364405
  0.6688958585791809  0.7529888292222804  0.2480650937917676
  0.2553976214084260  0.3319912114064809  0.9199964872048513
  0.3311028064563495  0.9143119621816206  0.0926730279995927
  0.1713153510108099  0.9132303931724625  0.9168508695537517
  0.7450207268738889  0.7472843914373939  0.3331805163960675
  0.2548262313159833  0.5925542643489576  0.6540396506346932
  0.1665252148511828  0.3392721540738248  0.6585283753555269
  0.0068628894837517  0.2433481227667565  0.0874555170337633
  0.9208378989034840  0.4122991118118923  0.3302029485181880
  0.4939464228891428  0.2495230808228309  0.5765011389885457
  0.6478335369120974 -0.0024639933007513  0.1684273741459074
  0.8269533130544139  0.8427958852208993  0.3280416949012438
  0.0081291522449890  0.3303502972037072  0.3339715547324820
 -0.0128138873880369  0.5835377801919901  0.7490850822533807
 -0.0046885090616766  0.8319354459274444  0.6802376382596862
  0.0031220691031117  0.0848861096189149  0.9122970690020428
  0.3336398072899202  0.4074588791025348  0.0843378577886705
  0.1790740211513918  0.4247595063928225  0.2441287508410878
  0.3217998055421470 -0.0002012910420229 -0.0020410595553011
  0.7500683999085203  0.8353840373022570  0.7383458835542853
  0.6575912086081775  0.3204239650617459  0.3470988684630426
  0.0067871276067280  0.5705582903943358  0.0771266154622387
  0.2567293223152580  0.8334822941848137  0.4159449045503766
  0.5077603103547101  0.8388819392251807  0.8244189794314415
  0.6601778821357452  0.9157096894646409  0.2596418320359080
  0.4242337967101935  0.8413257997820279  0.7467971233712760
  0.8181882053535383  0.0817688757213945  0.9254857626151922
  0.3312166541011872  0.4253793059786771  0.4159570615660873
  0.0872195627656844  0.1695157160170729  0.7509841740982043
  0.2477836001950393  0.9238971457681734  0.6716485648739651
  0.6596997278295729  0.4206286145482082  0.5778261574621446
  0.5769784341709226  0.3235080002697076  0.9126160478769402
  0.0809954454028631  0.0829998387013945  0.6708386834000944
  0.5928521636020969  0.8440227441738566  0.9185613247528923
 -0.0052706027272974  0.5789375688887366  0.5849746787337242
  0.5814975324431222  0.6681891121229947  0.9233218180784368
  0.6617437303315407  0.4856411814945418  0.0040818250547097
  0.4889411447031634  0.3377542287636077  0.4895185576936114
  0.4896231610649961  0.1681206040941051  0.1507525489591230
  0.2522096601566297  0.8317000780519656  0.7363822410072387
  0.4922557827154901  0.2348099626060340  0.4246106512938072
  0.0084789315547390  0.4864781667201984 -0.0082752619996712
  0.3192369477666858  0.3311090517031604  0.3378809775850258
  0.4028316375006214  0.2324228903035197  0.3433830881611655
  0.4978226806568072  0.0731723276060374  0.0755429558896400
  0.5775093523068804  0.2407323290964781  0.5002521436377140
 -0.0065969424403020  0.8438899430811574  0.3355251492511833
  0.4058656491765933  0.6634931656521559  0.9285998262877224
  0.7464793306460549  0.6748537770366823  0.0808560914020749
  0.7504746894174349  0.1783975195674356  0.7368490738725824
  0.7384236485171949  0.3206777155455980  0.7480186000945491
  0.1740094526645057  0.3283935444449214 -0.0015323296558309
  0.7525412651613452  0.1686541248142844  0.5863282100409460
  0.7408759395509671  0.9191110826218702  0.0020766502981376
  0.6610703423363605  0.6539947966158201  0.6602048257443112
  0.6699730603636750 -0.0002816647339810  0.8268600883644329
  0.0971248039102918  0.3242929304785773  0.9125325034620427
  0.8270513841627535  0.0941278593973532  0.0725800866841363
  0.2638011003827410  0.4965961861020027  0.9252338256514162
  0.1733705142299028  0.2458136020367831  0.5811015029599133
  0.6702263429955145  0.5772021835436931  0.9291109279562426
  0.0013992049788385  0.4078235746534467  0.9060223103588056
  0.8375246841488733  0.1742333072944967  0.6591309730051571
  0.4120322646515664  0.9220428232959089  0.4922923243046190
  0.7477306001765197  0.7484711413930413  0.8363124089743106
  0.4290422340914265  0.9352135511493426  0.6772288400414073
  0.0818788241261764  0.9182364308707952  0.4922102539532281
  0.7644683352917434  0.1502410646610346  0.4284741092725904
  0.7492910565950627  0.6599362437954356  0.7378065122987434
  0.4015986830781432  0.1707507097575873  0.0794349758417536
  0.3370015119165664  0.8299128740252583  0.3264042712052959
  0.4249069269759784  0.5764585994772893  0.6690020166520347
  0.1667790515384246  0.0083433136436309  0.8321848735455736
  0.4959187156986066  0.0159429663531373  0.3344195302394790
  0.0868814938437295  0.8374457578331995  0.4100173714429411
  0.6504626345641048  0.4988556542011502  0.1530063453177149
  0.2575929009847472  0.7540683376308999  0.8241259170045226
  0.4112726488429364  0.4991421595525365  0.9234448164856105
  0.4085728344796141  0.3310609410713908  0.4092164754494017
  0.0755124106818867  0.0816315922853607  0.4994948110594682
  0.4087665424322640  0.5816091693902675  0.3242936521844645
  0.1019479902212474  0.0843295912527650 -0.0041607046420991
  0.8421640369883221  0.6726017784833337  0.1570921065091006
  0.0126153265419019  0.4234285588852318  0.0924579020595904
  0.0822842301649967  0.7571955423634400  0.3238560998522613
  0.4194673365615458  0.4050878221488828  0.6678047385717453
  0.4948596927488585  0.4257371837020720  0.4085683513652190
  0.8327615575568221  0.4079368139147613  0.4169543863117278
  0.0889856817587938  0.8410657951795921  0.0969352638099003
  0.4152274657607523  0.5790901572810451  0.4968058806975857
  0.4194408042825520  0.8324408815167552  0.2481670858612677
  0.1677516120829081  0.2459050951153118  0.4211551383901746
  0.9205402003781320  0.8393960188047201  0.2513648397254629
  0.3310242317076652  0.4002215919492039  0.7368320150259577
  0.0083158771394969  0.0837445454700284  0.0756729033012097
  0.5825592124435235  0.6554636904481133  0.4165198576070241
  0.0138101572974884  0.3318444341446849  0.1656484587025225
  0.7540320084091040  0.5025753784879787  0.7497512120042878
  0.1644503995714811  0.5818354432222121  0.5763378176729250
  0.9205421901989955  0.4965435614714749  0.4137352144019276
  0.4226443933962036  0.2409423753763653  0.8375556804801030
  0.4930975198382090  0.8417842192338764  0.4885789054841844
  0.4051529665044947  0.0817360893949320  0.1641594948032428
  0.0834068026590472  0.2502789886976806  0.6590315235738138
  0.8350621596983220 -0.0008642650149345  0.3203220144067953
  0.4980296385782198  0.2563921912813090  0.0780943457373742
  0.0845316719037630  0.6597020988041458  0.9220166906134986
  0.5008858772109394  0.2452811267314951  0.7442951788457787
  0.5801188845802728  0.1802504821590224  0.9192807319025753
  0.7549400946232993  0.8393095821151895  0.4233680718286733
  0.4996113348190181  0.6802192348567135  0.1646884928036822
  0.5837555581440063  0.0006992225935663  0.5797024976249101
  0.5796318427430577  0.3316831831381724  0.4269279541568554
  0.2459321955061811  0.0082050705983177  0.2382481094157102
  0.0832064965497253  0.5009420766459556  0.7615939754467270
  0.7415237906243533  0.5013254857203897  0.4188374697289477
  0.6713220034243661  0.8332331107953174  0.8321588071075663
  0.3346093172817579  0.3212707087886366  0.8308510728978662
  0.6789606981957986  0.7449357676611420  0.4319071927629393
  0.8232816196436792  0.3256457610365600  0.1814312064358462
  0.1675446549023477  0.7448377287916319  0.9146359086251182
  0.4930020173985914  0.8488198349607222  0.0008161960518739
  0.2450915593890423  0.1586961617079534  0.2410680498249212
 -0.0093379935388539  0.7506792985468878  0.2471090529818692
  0.9181447324563214  0.4157426173386214  0.1826209818744609
  0.0832568442687532  0.6725769520456014  0.4045244725793849
 -0.0048576595102208  0.7537557620873323  0.0936016696635613
  0.5846370560880187  0.5039878651848229  0.2451255548763627
  0.1734381929606562 -0.0018961255200286  0.5015383486443786
  0.2580445538416455  0.0932188476170522  0.8295391509942539
  0.5753591364936519  0.6580460735569911  0.5803312559849799
  0.4084910798741465  0.4085112669136332  0.8247368023733417
  0.2579524976494344  0.5798581710418188  0.1668035375363295
  0.8311223991329987  0.7482680161432917  0.2451031578856551
  0.5006770608306760  0.5008404545752330  0.3204350491749765
  0.3307713575728526  0.4961036904917406  0.8312201292605162
  0.6646554424849032  0.2573463228783109  0.0782724194070556
  0.3376273323605709  0.9257435068946662  0.7459905624296428
  0.4954821636888754  0.7473148052889191  0.2592154148864181
  0.1760038031844617  0.1711651603984525  0.8333589509584292
  0.8300607797924821  0.9207452578454551  0.7574048340018622
  0.3382674905855306  0.0153846260236554  0.6753828904105186
  0.3424882672967027  0.7497350106694167  0.7362769576049684
  0.5860547342386184  0.9236940650805868  0.3414974775488409
  0.0838220188715363  0.5920078031629090  0.8249632499722591
  0.1729152669678865  0.9163123403183587  0.0860055642865134
 -0.0051689861334899  0.9082366763436329  0.9234967723708725
  0.3321806617909114  0.8341111252174609  0.1767011254223247
  0.0031459505215902  0.5046012996174213  0.1756293861748725
  0.5834120873703620  0.5719288755003215  0.6711836589852564
  0.8369125098917460  0.4062926726253054  0.7437797359895207
  0.6681867205424511  0.4996051548251073  0.8289061734589775
  0.5009755835896287  0.6523331734408138  0.4916417493978834
  0.4919624500647387  0.7434651459899531  0.4063816152733430
  0.8512516998007099  0.1614421569810770  0.5117299153134094
  0.7508237454353820  0.3361084052626912  0.4119871639409169
  0.5000053069708190  0.5935677853057392  0.2474729675568480
  0.9048625413904449  0.7468864477662892  0.3330160710366042
  0.6528702601789440  0.0922319179146952  0.2343015822099528
  0.1784412963224581  0.1729936379816682  0.0028282691347099
  0.6682927220172941  0.3362051039198719  0.4913791032039775
  0.9036928978899117  0.0895653142732539  0.8410098673224712
  0.3374487990361275  0.6705193676772180  0.3232393792690105
  0.8398468704041469  0.8345668826080141  0.1691689417443196
  0.0833797991676331  0.5837265668821896  0.3381756095837379
  0.7538992567405673  0.0974568673184384  0.3190952556127556
  0.0902519233259461  0.5026897362231934  0.2555237646269991
  0.4135479638943776  0.4052882794092916  0.1763026940523436
  0.9198936514771628  0.1692040221513051  0.7450762962711382
  0.9155187932818706  0.1631369945309201  0.4144416858865129
  0.7457092147234122  0.2571005577350903  0.8483887613708275
  0.3404591068970541  0.8357118107215432  0.5131667477027277
  0.1747721736519575  0.6649353054411088  0.8282087833828861
  0.2440160426301189  0.3337358947066210  0.4208396793551704
  0.8414383898069137  0.7630001070210015  0.0803345865776929
  0.8270711517366108  0.9325451266049013  0.4187383193326405
 -0.0084793160232293  0.5917866562876817  0.4079590088062562
  0.5698626591520914  0.5780482453498605 -0.0080247023553675
 -0.0041130813145929  0.6602057261424402  0.1631238337661435
  0.3260812161105759  0.9087472082039058  0.9060734767365236
  0.0911739574442186 -0.0021888111967769  0.2513196394768755
  0.3355041394125426  0.4949089249773483  0.6534895515315837
  0.2511670742755357  0.1590272132756036  0.5796905391974145
  0.8282153939808923  0.0790413036410050  0.7448391339085153
  0.5812145021595557  0.9332803866541559  0.6845138800144931
  0.6749986808994096  0.6659283662041930  0.8400633300954207
  0.5724967575947220  0.8466317418236324  0.5785934755279688
  0.4366909147880313  0.7470064603740298  0.6749124699766746
  0.4086576706719782  0.4980352229979664  0.2419185049720748
  0.9065633079448139  0.4895422856056405  0.9246428699211380
  0.4063956804543901  0.0186987675493429  0.4063568428420423
  0.2554890888451203  0.5805380958322830  0.5004077985243072
  0.4920275983542549  0.2395172123037508  0.2489978642995252