Mo Ni                                   
   1.00000000000000     
    24.8846809335484060   -0.1045824317617899    0.0143688901577517
    -0.1057747213662458   24.9194333050050538   -0.0097194615741606
     0.0083199648272565   -0.0179430040762184   18.7162946958247787
   Mo   Ni
   540   324
Direct
 -0.0002657964746434  0.0097455115873891 -0.0068935782629251
  0.0044724368608263  0.0022145963746739  0.1599290173211100
  0.0013336797877133  0.0854913268186580  0.2497682745389536
  0.0833106403691516  0.0028572809733582  0.2497630387736619
  0.0809813064299513  0.0935949076578136  0.1612351756634169
  0.0008886556801524  0.0803156551757877  0.4189060187582925
  0.0820737826491911  0.0901420934394461  0.3329052250369036
  0.0085742750822529 -0.0022907453493805  0.4982830327844748
  0.0056921336163696  0.0763895746198586  0.5847332456303148
  0.0015209197971928  0.0746193092300430  0.7636061386269334
  0.0855674976971267  0.0087227024927464  0.9191232097991393
  0.0923322313168664  0.0857681147742336  0.8201163999670195
  0.0055704477530741  0.2550892159065432  0.2552773536641120
  0.0812024057061883  0.1741812251373099  0.2571771601990573
  0.0801976687451931  0.2436637185813681  0.1586182324230659
  0.0095864372532191  0.2571278422257134  0.4224619498069194
  0.0080680950614960  0.1667740183296014  0.4944965114541112
  0.0067112364811344  0.2507896093054833  0.5836617713436879
  0.0789590303594822  0.1593159042873367  0.5953459182532235
  0.0037661973307838  0.2518412230645914  0.7442970381007996
  0.0890387729742066  0.2542724785004963  0.6580765451887070
 -0.0004428657251033  0.1685273865952295  0.8266474610998619
 -0.0052396715347188  0.2513891125002317  0.9138175500382409
  0.0781261556276343  0.1622454352063943  0.9086550670811497
  0.0732171519289091  0.3316187920065218  0.0783263198422509
  0.0713365204051681  0.4173376149064407  0.0050528630022156
 -0.0005082483576563  0.4082506934421319  0.2484852269726381
  0.0848825939451728  0.4111716138054228  0.1664863083923462
 -0.0020330634757898  0.4120242945453561  0.4247620740609455
  0.0855741457740854  0.3308373920707264  0.4351434861202960
  0.0831955546693995  0.4078317978039058  0.3342582256292498
  0.0014225605343183  0.3391260711662345  0.6553254645937671
  0.0808901072776842  0.3394160528574630  0.7472892392424356
  0.0764772311561572  0.4209917087717725  0.6513250063051753
 -0.0041154061108602  0.3385272051236274  0.8284485944765472
  0.0724780148756346  0.3382353755942233  0.9157641125680994
  0.0767940642857332  0.4289653615794224  0.8309000093911794
  0.0742332780634583  0.5801813092760840  0.0041932430784137
  0.0035697331645782  0.4992431402417004  0.1653815213817585
  0.0876606036854139  0.4973597832201786  0.2495463951720662
  0.0786231961589500  0.5826162941102960  0.1693978062180981
  0.0007459059967698  0.4949061579578796  0.3350525118104359
 -0.0014771860436894  0.5827333130713132  0.4153845693569372
  0.0859548130366549  0.4964744433846855  0.4180754227427109
  0.0883487847592205  0.5826682043515061  0.3339223762087456
  0.0023068951044668  0.5005693170179757  0.5010555914476944
  0.0044019310912584  0.5869829204325289  0.5815329393546236
  0.0922001507323470  0.5056806546287914  0.5837949387095055
  0.0908399400337464  0.5850855998567032  0.4986203448912885
  0.0041905095287565  0.5790618167350922  0.7408691083246300
  0.0830920344751820  0.5040754984369320  0.7336576575697249
  0.0823422476181362  0.5718359851308454  0.8363944575678104
 -0.0105227423672416  0.7468103085199507  0.0802280424717207
  0.0765586122859813  0.6621306136341306  0.0857607372356948
  0.0811640300486376  0.7454699031155012 -0.0019704774992108
 -0.0073806753190750  0.7509381225788138  0.2499228579532397
  0.0823035236778517  0.6654084983969506  0.2519187285715319
  0.0802589213160960  0.7485080991332870  0.1646997401575813
 -0.0055788316254021  0.6674561109730343  0.3297086711830786
  0.0025932093778095  0.7524686846872151  0.4156350975881387
  0.0892323341472303  0.6693743462088154  0.4115117064908901
  0.0853346336371585  0.7544579564169349  0.3268779790338356
  0.0033467696497276  0.6681529290800575  0.4975218026585044
  0.0076031638196421  0.7489541687027844  0.5836248289276497
  0.0938994551903932  0.7540579626326196  0.4983875293628285
  0.0114882470301218  0.6668857117756705  0.6688556168543774
  0.0932318881142826  0.6631173598425377  0.7630058199040092
  0.0886200661387085  0.7516691029065772  0.6801343222365872
  0.0029555877533259  0.6640594699549832  0.8353965635627965
 -0.0018379791704971  0.7487840493436057  0.9150770417819126
  0.0884583325099117  0.6655216494411064  0.9114501597760892
 -0.0039210022771485  0.8336670229444028 -0.0061424879556148
  0.0000003331732404  0.9201825997074765  0.0760464373314567
  0.0813967876718158  0.8342285172278201  0.0814023564017334
  0.0837830922148079  0.9222031584600474 -0.0034187751108199
 -0.0049135002402464  0.8330640836597086  0.1620739559444795
 -0.0062826225110132  0.9190955794235667  0.2446772503558444
  0.0794589542519797  0.8387201829205818  0.2446713266197332
 -0.0035753097350818  0.8348172876919704  0.3329318644348310
  0.0884471251996165  0.8410465759692338  0.4178918557588329
  0.0800353569384817  0.9208014117102450  0.3327656858654995
  0.0028499017873170  0.8387221780875596  0.5061133107876757
 -0.0031621486597595  0.9206030605049226  0.5918850842407052
  0.0888213435972987  0.8369825171233076  0.5828635687326900
  0.0792283471197899  0.9192778627698694  0.6659270345320347
  0.0830509351303183  0.8304642472383743  0.9140161970194046
  0.0716148483352674  0.9205026163453267  0.8365099755999953
  0.1641643342341343  0.0817515526988723  0.0787436151122464
  0.2594170922637157  0.0024356753743797  0.0914503104900105
  0.1677711214994408  0.0056301972085401  0.1628154939574418
  0.1657029177171389  0.0915665527557789  0.2454367191030968
  0.2494655086775430  0.0068087904739973  0.2501508433103357
  0.2537159307103274  0.0910316131747814  0.1690325312830916
  0.1680198603118743  0.0074955386951110  0.3306895909556062
  0.1688060337898581  0.0896095855825399  0.4159267988963584
  0.2481260675272739  0.0002376246876665  0.4172496831547950
  0.1555295105456586  0.0029378770818844  0.4965117111040858
  0.1646099881614272  0.0753663084320893  0.5929375612720688
  0.2472598220046651  0.0823430383168964  0.5103679611723869
  0.2467523223268894  0.0048230137487267  0.7426065879386987
  0.2431469782550482  0.0030020925380444  0.9098550785518058
  0.1614619421681706  0.1613297319353173 -0.0124525422633169
  0.1638014502798109  0.2443699659576461  0.0727893976336650
  0.2529267629817701  0.2496617693441959 -0.0034554447345069
  0.1665060066288956  0.2515826991661790  0.2418585581832039
  0.2473394299590594  0.2438137512046397  0.1539391677379287
  0.1720356670329082  0.1741159743686667  0.3323557484338501
  0.1695175313912282  0.2514616640148417  0.4274449744108830
  0.1591308298522940  0.1655892592196397  0.5067178822568512
  0.2442374817015757  0.1693961562417207  0.5838579136619115
  0.1609203795611191  0.1628654098936625  0.6683350012054357
  0.2463863996637067  0.1615430256409501  0.7470528859552091
  0.2451520285599152  0.2518932466803209  0.6726395541081323
  0.1629535107538594  0.2450094370483092  0.9107704852978860
  0.2499508620174516  0.1623166579158828  0.9200231610300749
  0.2480906630269085  0.2481226577781556  0.8326635791174247
  0.1608357963918611  0.3307680814316932 -0.0005852788557936
  0.1664013453255652  0.4192802033239255  0.0839196051875377
  0.2503153270177869  0.3341347921635295  0.0818629859407451
  0.2521509989504781  0.4166946363324462  0.0034975202450195
  0.1667377595083362  0.4060800336091650  0.2489497435424267
  0.2559210426249664  0.4122774914129979  0.1724042103955399
  0.1705627577489011  0.3269335902485668  0.3367760844700092
  0.1654532026686055  0.4094768934159574  0.4194422144183731
  0.1630917152980667  0.4219646086074951  0.5824623401332404
  0.2494657549938608  0.3355206971527875  0.5913153575185661
  0.2499853460671341  0.4168930398526954  0.4997896478914834
  0.1592054612212935  0.4244241332401397  0.7441209032368534
  0.2468296576577346  0.3376163509092497  0.7532472606802822
  0.2456489265936369  0.4251627180742618  0.6685913295181045
  0.1595198476456439  0.3344166748804094  0.8328771962610373
  0.1606120876148531  0.4190287890496899  0.9202317619356432
  0.2506653373720301  0.3343251512370827  0.9165898282880448
  0.2485280765180509  0.4215459358647630  0.8372658186223850
  0.1663973485980798  0.4981316235731297 -0.0031533413020252
  0.1636559596592601  0.5769992677016702  0.0866778974459616
  0.2527370313122871  0.5788523848997977  0.0099661064828944
  0.2561552971849810  0.4978389373353126  0.2488696049433981
  0.1725916501125780  0.4935701051310622  0.3333342919714370
  0.1756347700023277  0.5882470593639472  0.4079210885434556
  0.2589585642510218  0.4982096289020964  0.4116557327301975
  0.2584186085073641  0.5877541695462274  0.3242427389538554
  0.1751162180345505  0.5903986073442090  0.5765443817134325
  0.2509380671972761  0.5055732228983086  0.5768671001151197
  0.2554201185089470  0.5865184204796597  0.4926222736278015
  0.1719954854942086  0.5884671312477242  0.7622771926347639
  0.2545216841489766  0.5060143442325095  0.7553763618502132
  0.1670101217359418  0.5807770156981347  0.9199424947555174
  0.2533559026023742  0.4999519410601332  0.9210876875270012
  0.2583779500051627  0.5880321656058679  0.8400569249830278
  0.1689907778242754  0.6647373745911003 -0.0007290375262105
  0.1662461625345656  0.7476434608653049  0.0810184513389276
  0.2526822818221303  0.6636675498909875  0.0866102190698506
  0.2562048526941134  0.7494682966837075 -0.0006709198217616
  0.1696931601222211  0.6598556068657180  0.1704478099285993
  0.1671549932819476  0.7534800123422483  0.2454390067459266
  0.2477277633661183  0.7485820729096074  0.1627631425105576
  0.1758428154659112  0.7510738554405524  0.4046668354320079
  0.2550486943075981  0.7385228175218777  0.3224750382624170
  0.1713720519881320  0.7478067360000982  0.5879065844941104
  0.2542288444320577  0.7518042367885391  0.4998985621677421
  0.1768151273954652  0.6670642745672526  0.6709496111170290
  0.1765691405447754  0.7389738933438261  0.7687216549273569
  0.1649549012622562  0.8350169280174322  0.0011929557477426
  0.1683288669397396  0.9211403418499918  0.0825081969499405
  0.2506515572621751  0.8354974694916902  0.0808522164948927
  0.2533401778848364  0.9203306862710380 -0.0042436223514662
  0.1664578825242889  0.8399368512855412  0.1679487232043837
  0.1700200570339996  0.9187491826481496  0.4184736445556931
  0.2472078612827733  0.8332328239627933  0.4043863625991626
  0.2453937035210659  0.9160406800483719  0.3169278238461650
  0.1680823138287598  0.9191638708451663  0.5760328817452066
  0.1652513814449911  0.8309122862529342  0.6723033975024332
  0.1574417248687769  0.9152592055349209  0.7521836209080359
  0.2499857673336728  0.8193866836910314  0.7494977859916673
  0.2448761904034938  0.9141740507385401  0.6714799686295199
  0.1616116008162246  0.9188173999282483  0.9139563509303106
  0.2413059110156873  0.8289890190170371  0.9132455384052093
  0.2441348978233466  0.9157769185853811  0.8295203059330067
  0.4049246586090047  0.0108739091163683  0.0828601474396514
  0.3347671458350997  0.0063567440384409  0.3316674470548128
  0.3247677748764549  0.0869483638757296  0.4153245537118774
  0.4140341146873367  0.0004268311502764  0.4170715047237380
  0.3281808657239204 -0.0053818642161329  0.4961031246830668
  0.4089666335063922 -0.0050704040734647  0.5850514636164948
  0.3299593313614355 -0.0001230558362350  0.6665658522323789
  0.4164665162058313  0.0002361561845313  0.7483703130590337
  0.3310741696734675  0.0028094138412383  0.8327153517132674
  0.3358877102495687  0.0835109544927431  0.9193242457196453
  0.4228661263922868  0.0074858313071184  0.9166835645353950
  0.4221784777244762  0.0884960308853937  0.8300463568117580
  0.3392916096051790  0.1670223252217206  0.0020621539831354
  0.3388872559414097  0.2542944064755084  0.0813952556198478
  0.3342734807634056  0.1661705316240008  0.1587861140621917
  0.3235768835650547  0.2481508157505262  0.2471885300419964
  0.4079934479960121  0.1648090775521025  0.2577978476230804
  0.4140452468156192  0.2547090006987184  0.1760841585161069
  0.4124233002047953  0.1614326433954583  0.4179967175250395
  0.4064323672276459  0.2490278107867490  0.3380875137103608
  0.3282837818028869  0.1706832669950718  0.4981111522170871
  0.3319492796621598  0.2532524535645723  0.5853643388340138
  0.4135455307094923  0.1649708687417962  0.5821873919345847
  0.4111756191840626  0.2524093822309820  0.4978726857641870
  0.3291275975761039  0.1607507567698836  0.6646728970444695
  0.3319753053362915  0.2510245621800983  0.7510983953132200
  0.4162260876725581  0.1657844292777403  0.7441344642352440
  0.4173337356211058  0.2521942392832655  0.6652858987382018
  0.3325119040379142  0.1651508397151542  0.8319050739759271
  0.3391346630974417  0.2483119153900467  0.9149389960061183
  0.4242413921205102  0.2483770548524868  0.8331720021844660
  0.3369645000440827  0.4156232172347202  0.0804126021530370
  0.4132470918563224  0.3367023298550947  0.2623895186283010
  0.4140637167014284  0.4129679651832387  0.1690798846650271
  0.3191487885570891  0.3318155114011114  0.3277001214964008
  0.3285223269898770  0.4181792987171118  0.4051855134370014
  0.4097231870678580  0.3353562246297108  0.4174213842949443
  0.4161384087067878  0.4227848372765426  0.3390710575652088
  0.4192849235645764  0.3366970345610771  0.5825125962303423
  0.4079003620564973  0.4212305711646699  0.5025892891328223
  0.3329619132105821  0.3386572175738052  0.6677032321517797
  0.4211816129058060  0.3373249593993362  0.7483773117399625
  0.4135477593872460  0.4226863774182653  0.6628582749191447
  0.3373956889471170  0.3341377329992431  0.8355084370972526
  0.4278266779222500  0.3308150069932748  0.9186938148769179
  0.4171725196831203  0.4208694343831227  0.8326216028948541
  0.3336999336847210  0.5756369149900169  0.0891905958458474
  0.3331172954048170  0.5844686585355708  0.2355443909788224
  0.4171584677561130  0.5716718532040455  0.1641788708721524
  0.4180772715588741  0.5804391679765316  0.3364451519484326
  0.3333732501098808  0.5833998083667237  0.5838178857828423
  0.4130036348715782  0.5891739578719152  0.5021434441417894
  0.4103807901730562  0.5048667700502377  0.7424608450656213
  0.3412915977756691  0.5006988876576306  0.8469576737634962
  0.3371547855407864  0.5882155126877294  0.9322450244540829
  0.4150764004809195  0.5814605534401051  0.8365985966593539
  0.4122475026246671  0.7460156789747989  0.0098043351664086
  0.3328738647583794  0.7443039102280991  0.2402485712722856
  0.4135849243840273  0.6600464852114272  0.2511254505238753
  0.3380073542411096  0.6632565049806953  0.3484700192375818
  0.4182563713511533  0.7467718207576675  0.3314200400915523
  0.4113822975810317  0.6755640496343793  0.5759461806610114
  0.3267059457322635  0.6680289516474589  0.6626202430228918
  0.4115866885700448  0.6625982339950290  0.7428036822030559
  0.4166036316242557  0.6610190590784001  0.9313923810320305
  0.4110975112579894  0.7429474357177368  0.8299690380199424
  0.3330067973058774  0.9247227747431724  0.0884166733821162
  0.4145592759860500  0.8345251292350901  0.0814565555139213
  0.4151950111263581  0.9237577099111645 -0.0018838743985930
  0.3309601340864128  0.8383184706759629  0.1678550414017125
  0.3350793747673033  0.9245827878016335  0.2478338660375893
  0.4184030996478896  0.8341604012578812  0.2453606366930501
  0.4183411795423622  0.9228630357177721  0.1644871535050251
  0.3335913568883616  0.8308327051318288  0.3256930501418008
  0.3269470097748290  0.9124401222411346  0.4095065224771752
  0.4118792579849039  0.8300545511107654  0.4122860232568112
  0.4196494189836599  0.9157931498785472  0.3334353022239551
  0.3360912783428227  0.9056684202739191  0.5928871874323531
  0.3311575574558761  0.9100561650197858  0.7505600995060032
  0.3274962687489543  0.8231532423769718  0.8387002402006855
  0.3332109272766262  0.9159940980030282  0.9114368131870726
  0.4136187059150208  0.8290069885668150  0.9165598545266631
  0.4190478935728035  0.9158418487071336  0.8295002534059627
  0.4925163993328849  0.0815149913933508  0.0853105669541145
  0.5833707561369208 -0.0038298973994093  0.0797719424754658
  0.5019343014377471 -0.0018957390636174  0.1589972998197484
  0.4964852991672032  0.0766057353446665  0.2462809713255776
  0.5848232347782022  0.0792572936746098  0.1688715927460420
  0.5046175282126590  0.0025398538614806  0.3403723300825996
  0.5846084697486420  0.0726918592419468  0.3361491383166810
  0.4945015149790008 -0.0058731635464252  0.5021462388313429
  0.4952804049443073  0.0804198998870234  0.5775914708452944
  0.5820379833153685 -0.0055155827370691  0.5805049896557304
  0.5826664356631764  0.0796788125650483  0.4989327428594449
  0.4971975849080153 -0.0058968096077177  0.6634628848734194
  0.5051173965005490  0.0829042863619320  0.7453987933884828
  0.5907461029781272 -0.0037412144421417  0.7392509901256220
  0.5060426993562862  0.0020822488262412  0.8273988746071863
  0.5028856600380665  0.0874768433987837  0.9215152889633978
  0.5784663424129147  0.0050365014392831  0.9228508031729920
  0.4937297820121582  0.2512723494190371  0.0919631221624750
  0.5811274582657078  0.1633813319782758  0.0910781105104517
  0.5774892450993521  0.2431283399524470  0.0123378158934846
  0.4956288041315443  0.1643576531230045  0.1728610901999368
  0.4973410637214264  0.2513679445786428  0.2591700502195706
  0.5865181684500281  0.1631146948557927  0.2545510532519892
  0.5815537383431832  0.2494853900140726  0.1752740803074835
  0.4960534410709901  0.1583219989052614  0.3339658669179451
  0.5812490616781832  0.1634699322376782  0.4163076604234378
  0.5840729408673196  0.2530745553181101  0.3391886210788826
  0.4964209889130991  0.1700049455093456  0.4963534875798222
  0.5819788751742644  0.1672044490563925  0.5760204460306378
  0.5005931187515312  0.1620257647560662  0.6621159660240582
  0.5064371376965757  0.2501445521311932  0.7393989459192570
  0.5846861459944541  0.1615830921999154  0.7439729503554390
  0.5867761839758353  0.2515021537008635  0.6539312094119145
  0.5784038187488344  0.1632502499598022  0.9167721558934315
  0.5769064446340322  0.4115676832317684  0.0064615938178812
  0.4965416160885886  0.4223916333005404  0.2553159433887289
  0.5840705251819418  0.3355627746171489  0.2529881638075515
  0.5747328890056626  0.4163924865614313  0.1694300111944813
  0.4997950710373882  0.4236574665073198  0.4222835856964942
  0.5910308325120351  0.3416894141114556  0.4138081038329603
  0.5812237329427656  0.4245285137855288  0.3339280047996220
  0.5012007874978089  0.3284855094564464  0.4892718892582473
  0.5854220887061136  0.3374706819594503  0.5699480660638245
  0.5900234007755226  0.4245900714433576  0.4949162787239097
  0.5042886604125001  0.3403319587376079  0.6601881958570304
  0.5850788138864812  0.4148379304493113  0.6632108021655794
  0.5067890209040948  0.3317585988664912  0.8295741842773319
  0.4971802459763882  0.4207644976436696  0.9264910758229522
  0.5793595334021239  0.3266762157121076  0.9301795623097999
  0.5757796962995139  0.4114347639577861  0.8359752743215306
  0.4994992913285410  0.5803007410079254  0.0887396386055589
  0.5788746728317286  0.5808953638329766  0.0023063236474554
  0.5795215070391296  0.5762971298757360  0.1687274901793535
  0.5020125450069742  0.5893103469828146  0.4204296652251178
  0.4984789338284871  0.5078783668919123  0.5044152532080088
  0.4969754943841354  0.5864785393127151  0.5889337010760781
  0.5845072566966804  0.5011286245648483  0.5840436829896631
  0.5850724496638032  0.5923947218752719  0.5103960962763898
  0.4942895849562451  0.4931598134297933  0.6612255652770598
  0.5796747149986772  0.4980948997331457  0.7494003218018950
  0.5835504627842987  0.5842781321428817  0.6701459068780932
  0.4948785599495088  0.5004257052423556  0.8284902582027073
  0.4952018624014086  0.5718611375534729  0.9265869384670887
  0.5746052485608480  0.5825986179564898  0.8358152667532167
  0.4993786793902807  0.7469365023588838  0.0812601221420129
  0.5818330055320202  0.7483443200244356 -0.0034466295124483
  0.5001569259584034  0.6630484793858604  0.1664303223808211
  0.5029236049956817  0.7503691136477723  0.2474968015079475
  0.5876462681707326  0.6658908040286554  0.2380559550736384
  0.5836831174909538  0.7520800221351682  0.1622659989081848
  0.5047254183918898  0.6637948517313841  0.3226054297227706
  0.5001111812994617  0.7420230750887522  0.4171299160449433
  0.5797639797441433  0.7421393814714816  0.5052168128185928
  0.5020308582432911  0.6728388497895650  0.6622394821146552
  0.4964112450137939  0.7496685579439653  0.7484924116460392
  0.4961172881133802  0.6616743605349997  0.8231385897033762
  0.4945517609011969  0.7429948917038894  0.9171112965625318
  0.5799938640032206  0.6642313159640523  0.9166621135959375
  0.5840473169305108  0.7487321730612849  0.8322280022788764
  0.4978278416677478  0.8344734031159612 -0.0009421667331338
  0.5825677125849563  0.8377331584047772  0.0801612009395432
  0.5014688689065478  0.8368277641665721  0.1670253124625830
  0.5060025122028746  0.9181744383025678  0.2538067905673435
  0.5036523163460930  0.9120054072844107  0.4188924064685010
  0.5886781144276861  0.9094480276250210  0.3358359954065673
  0.4932724078915602  0.8252561989759967  0.4971393894761105
  0.4904909301536913  0.9063658502173071  0.5792981904190710
  0.5774257532413883  0.8173445382245118  0.5932202289339112
  0.5821080187960255  0.9032865689661422  0.5092124804895382
  0.4884705583874968  0.8324849719346964  0.6687675613988621
  0.5819605559697042  0.8357928156319869  0.7485241277738321
  0.4973021408234299  0.8324164367681253  0.8349792213254598
  0.5790981408993989  0.8335631775933781  0.9155243794371668
  0.5841072016616650  0.9193830587322930  0.8391132031093578
  0.6655639203908060  0.0069822600615468 -0.0022111978273745
  0.7487488448967380  0.0044071583814222  0.0767008296881130
  0.6634607336815068 -0.0039243927453953  0.1662246045267912
  0.7446083661406824  0.0008143184311747  0.2449059781895928
  0.6681512813719599 -0.0063584257753339  0.3366057716059445
  0.6713094266077370  0.0776420841056087  0.4196774487903770
  0.7549895091330321  0.0779629535493603  0.3366064735061980
  0.6674617162458659 -0.0070760636477548  0.5069250393606338
  0.6675904446556060  0.0835016223665568  0.5814807192867049
  0.7582354222767347 -0.0067650763602162  0.5810100080276402
  0.7587924150985308  0.0819199529000374  0.5001901435755741
  0.7510054213683786  0.0007761193607748  0.7431215240387896
  0.7492034014021887  0.0816025416870482  0.6620426636500099
  0.6659089047506284  0.0067060409288270  0.8332228491649208
  0.7478473632327645  0.0801360881066512  0.8316489260087022
  0.6630428133884885  0.1606449514066952  0.0040849426888278
  0.6668015387617651  0.2476607491025548  0.0858358803175388
  0.6713800464480330  0.1651416285308598  0.1701338466020149
  0.7497836680260981  0.1673690638748177  0.2564263061096356
  0.6711188623862208  0.1644889235326739  0.3405282705920805
  0.6727655280954360  0.2555833643174371  0.4111014265249673
  0.7602840764970542  0.1674137361180321  0.4193457292811619
  0.6701456192548696  0.1706889688899922  0.4996747342918144
  0.6692177533068605  0.2586543751597462  0.5772063219778499
  0.7527650309611063  0.1671702911275314  0.5815564031967313
  0.6615752007434007  0.2514411357629787  0.7491978274191480
  0.7456891407608059  0.1624620187178747  0.7494317304515257
  0.7466863658011805  0.2508792398934739  0.6677755413736932
  0.6599824185880623  0.1623928879432552  0.8292166758776174
  0.7431654428771540  0.1655811642440571  0.9129626208643693
  0.7461531997545278  0.2501724367550011  0.8356642464985308
  0.6672312648587666  0.3273033102946484  0.0017007204028599
  0.6628348259693223  0.4132961077550792  0.0883871386749671
  0.7521453363613189  0.3326857227059055  0.0858429003405349
  0.7535028766001507  0.4138784466027793  0.0036328503759502
  0.6719947230987036  0.3298869349650979  0.1766211755260051
  0.6682178170509214  0.4200368654199059  0.2530992480660255
  0.7527051627644032  0.4144055870388351  0.1695458567765304
  0.7514690646289915  0.4066776094870617  0.3361196946300445
  0.6807774508799908  0.3395960558567936  0.4838953405663567
  0.6686589363959982  0.3431872574580299  0.6600193552065688
  0.7457554201492709  0.3377874886336641  0.7536147366735858
  0.6605110073383514  0.3305746838858352  0.8388959635239128
  0.6623539569466455  0.4127337335362495  0.9195091549741153
  0.7518766246897557  0.4139118217799623  0.8443528662078540
  0.6667911846578473  0.4968887032859611  0.0032855620966924
  0.6652311287891133  0.5820100564750436  0.0811826299830525
  0.7544304800816216  0.4986949796481702  0.0836904625826559
  0.7557004569803728  0.5830341315457223 -0.0020192861371663
  0.6646054388079652  0.5019870794985173  0.1747820155851173
  0.7491830530841566  0.5825595349827259  0.1656343222361546
  0.6574324508606224  0.5842123448435608  0.4095913365754870
  0.7426522127457379  0.4965653055556328  0.4066567589889932
  0.7436894514151655  0.5821296403593931  0.3308266054546259
  0.6686855125495055  0.5912914968639915  0.5935446379768489
  0.7435415821830490  0.4985708605300854  0.5782362219407662
  0.7426645397025631  0.5857744727102885  0.4963823450080003
  0.6704447101201025  0.4977920434211203  0.6695185593105024
  0.6644032652279089  0.5849121562922972  0.7529143139402118
  0.7536618459879729  0.4933643841358240  0.7527058191084465
  0.6636556945575413  0.4988578485321116  0.8358553836470844
  0.6643519462315262  0.5800120731542671  0.9172592767701603
  0.7565240234937688  0.4990713430597133  0.9161219199336706
  0.7537314168136351  0.5821483587825269  0.8314457189321806
  0.6699525756732769  0.6680474550347563 -0.0048163774950992
  0.6681655211469907  0.7543382286201129  0.0793962880123399
  0.7564093578140477  0.6701081727424383  0.0782804094419226
  0.6708420295455542  0.6681122506684122  0.1575597064474563
  0.7454214587272867  0.6700415521114330  0.2513774731047992
  0.7517671177578623  0.7539167001221143  0.1595226428613639
  0.6591468636629252  0.6728553226186258  0.3393901931488352
  0.6620227736196107  0.7576443306431367  0.4164322651415574
  0.7436434474753205  0.6707186268937783  0.4172611333661390
  0.7438273226606298  0.7567981704393374  0.3275566208591296
  0.7469565987965352  0.6652820079873161  0.7483672307476407
  0.7440984606203113  0.7471840593966407  0.6730284244700849
  0.6710347538478887  0.7531722317838436  0.9102207983099054
  0.7558366909356157  0.6687323762628752  0.9128881120537417
  0.6683122306703554  0.8359559973147387 -0.0078083909815922
  0.6701566015724070  0.9178891049358310  0.0777224155298362
  0.7573701206122669  0.9193941252240458 -0.0143707361569085
  0.6669570164647296  0.8378366450791289  0.1668762831138337
  0.6643680654158326  0.9060777255830652  0.4255219044434311
  0.7445183890958261  0.9124265577827978  0.3391591315763507
  0.6637510660879490  0.9044345163225064  0.5960920013654666
  0.7465235059006822  0.9044525868517329  0.5071713844545975
  0.6611604467018726  0.9156801306959682  0.7436851588250554
  0.7450555160979807  0.8358968694915406  0.7603661959393876
  0.7539919144355793  0.9121078026848756  0.6714300090099541
  0.6728435751593013  0.9213054523722292  0.9119956782417353
  0.7589410032208530  0.9271238238369306  0.8318209273316227
  0.8301728011755819  0.0858043756580733  0.0824829758210862
  0.9185727730484540  0.0059150757340299  0.0848633437878903
  0.8302610086750738 -0.0016508309139617  0.1619298018503721
  0.8364801149437704  0.0827442996020289  0.2484223554610730
  0.9203515494608440  0.0885751502602164  0.1661232530090327
  0.8315620992115950  0.0022642156008419  0.3396411375776119
  0.9178304317399147 -0.0002512219848588  0.4237771582463173
  0.9214369374321711  0.0819996517466197  0.3333191812484682
  0.8392007610368313  0.0820082154112262  0.5950289978932841
  0.9194923283859158  0.0836384478645725  0.5043602777965495
  0.8435498721005533 -0.0045563090219297  0.6633083560782239
  0.9207781759703039 -0.0060082407755697  0.7519403491914830
  0.8377830810056404  0.0004120614081912  0.8347265872304713
  0.8313196103970977  0.0779744230076065  0.9241582024964026
  0.8308222958754697  0.1664719076872909 -0.0036056963099566
  0.8317748092624685  0.2520692436921834  0.0785820896917634
  0.9194728392487945  0.1681382917066592  0.0800163657077067
  0.9181923180733920  0.2520461609517212 -0.0013360864315450
  0.8316733076559715  0.1708176878818258  0.1644452750678691
  0.8377909509810619  0.2584834946304296  0.2461000840035025
  0.9227678279435291  0.1722248684773151  0.2500300261198791
  0.9223555454966086  0.2537134063474008  0.1634043920308329
  0.8375101811342743  0.1711503384402885  0.3267017551745385
  0.9169349551337130  0.1691059120738970  0.4190863236907839
  0.9233347789331229  0.2564951204289600  0.3401353426462980
  0.8339039538291104  0.2528758027366234  0.5809713793874676
  0.9275481218514612  0.1645967057398888  0.5888914703028455
  0.9209362954142937  0.2511374862432251  0.5033661555124977
  0.8352203305738596  0.1668891943736895  0.6664821033923005
  0.8307579803333627  0.2519687063330482  0.7498560834465382
  0.9156580899950899  0.1591205633872727  0.7467947277074685
  0.9206636358822834  0.2528617969121303  0.6665858491171321
  0.8339472552221148  0.1637924218999592  0.8328583004540551
  0.8344560883708132  0.2526602027458811  0.9142935285047237
  0.9186045554522652  0.1659807400654848  0.9147493754068637
  0.8403596101958917  0.3394274585725631  0.0010450057802165
  0.8355723477208404  0.4095218147085459  0.2543845790108172
  0.9157937175634718  0.4104176414405886  0.1679239818535382
  0.8334266320940522  0.4149648532347272  0.4163992381777981