Co Mo Cu                                
   1.00000000000000     
    22.8024653419290324   -0.0155128349373458   -0.0060570302206240
    -0.0154780629256677   22.9313040698292490   -0.0248316702547816
    -0.0063105529550851   -0.0258185398822467   22.3984257533682332
   Co   Mo   Cu
   188   532   144
Direct
  0.0750584053182040 -0.0008071185049248  0.0896649731232132
  0.0788855344784342 -0.0008029370091746  0.2460350752423164
 -0.0027735786869747  0.0824447652016778  0.4164033077074019
 -0.0052966876125010  0.0980035259840665  0.9120863076458527
  0.0820927137297189  0.1646881495965667  0.2457916540657033
  0.0751528242237142  0.2510617347218760  0.1592143152892396
  0.0785882480573491  0.1655174020396644  0.7473877083495600
  0.0797036873794292  0.1708089662338812  0.9316760713410580
 -0.0089158622344439  0.3320493228573126  0.1702291198464534
 -0.0016615311255396  0.4120741908136881  0.2527122107748745
 -0.0082057302729824  0.4944820609076521 -0.0032123398427206
  0.0053056731801812  0.5008915625297855  0.3447709172646939
  0.0123285107388869  0.5798958503680250  0.4165079765542204
  0.0872107526832254  0.5018148943254974  0.4169279796686591
  0.0874656591057481  0.5757990801519643  0.3371535717829752
  0.0944299208885105  0.5816490647064754  0.5022939890853433
 -0.0014550135166636  0.5074374640070323  0.6662776055492897
  0.0774798075598422  0.5821359378812889  0.8460201114178972
 -0.0013926389061464  0.7596777693922395  0.0860962274220718
  0.0800453868730614  0.7533564942725673 -0.0127030818177151
  0.0752116468312677  0.7562699979492959  0.1692588056056814
  0.0088743783506516  0.7510305302656664  0.4178290039496141
  0.0906538858870222  0.6627405253875470  0.5820676325498999
  0.0812710102449838  0.7443253659125144  0.6637000253590010
 -0.0002232339869570  0.7543257908026151  0.9098175126310144
  0.0815190229296004  0.6727686139712331  0.9150272382496690
  0.0005315443573229  0.8356996919141890  0.1675621609270798
 -0.0015740658776231  0.9181767078904430  0.2498660916299094
  0.0809181740509874  0.8338117894269796  0.2507430259003053
  0.0811678038982322  0.9162307405759659  0.3241676263033185
 -0.0066127155121980  0.9119961166184097  0.5817439914561982
  0.0798415705321685  0.9206064367185490  0.5034156918643755
  0.0707033050799519  0.8192512639682796  0.7440201449552616
 -0.0051904788856507  0.8262603630237102  0.8280555008179251
  0.1511791557199593 -0.0048903604137778  0.0050822707394225
  0.1558530017190763 -0.0026699353815549  0.1690069652104730
  0.1610871175059644  0.0824336921626166  0.2409846157791600
  0.1663336451716580  0.0022402581836023  0.6682659768314853
  0.2509328549895646  0.0841842434295871  0.6658418279872078
  0.2480023364926929  0.1689572162801764  0.0927060850519727
  0.1654699707806589  0.1622009718773315  0.3236203235704923
  0.1679963451623435  0.3337444238236084  0.0035194031010703
  0.2504534563080892  0.3332544367689654  0.0812858687822209
  0.2568080226179574  0.4161636644805105  0.5040112949238263
  0.1669500766953787  0.3343917352639471  0.8326235633588346
  0.2463912835407562  0.3359207721544812  0.9146808351161222
  0.2466056648924025  0.4171392735897546  0.8367186302514105
  0.1617269099688741  0.4968550657737714  0.3298526835822754
  0.1707777153808024  0.5824257271556033  0.5827032776698449
  0.2607284953483429  0.4939627292092501  0.5886829158233763
  0.1616740264082172  0.7485695794017087  0.9102698220718389
  0.1586403474604314  0.8338848509830982  0.1695705863114287
  0.1611665463725374  0.9173638567670591  0.2483038325335467
  0.1609801301288790  0.8408961445305635  0.3286919563135882
  0.1675442095398602  0.9269331300665034  0.7489642125640724
  0.4160275984339754  0.0025214380997794  0.2440384278782732
  0.4238352655990625  0.0115489734752237  0.5841559750461095
  0.4295700464578607  0.0039857145665617  0.7484553480480312
  0.4276823648021590  0.0846793439806708  0.6706076557923992
  0.4193304220614629  0.2518369582220121  0.1589303716988315
  0.3368582538298375  0.2508979864773338  0.4060276886915767
  0.4192690878216394  0.2522678014046886  0.3298192965726754
  0.4270353663472115  0.2519633371182846  0.6762937999972406
  0.4195468786388326  0.4136146144605587 -0.0013409313298664
  0.3384713938411614  0.4127038814688095  0.2455858119252185
  0.4160466091284618  0.4127350712994685  0.1634486970836645
  0.4152985488313189  0.3313720016941458  0.4070199584859163
  0.4212193704910268  0.4122030614950908  0.3307108504782344
  0.4133614184706187  0.4992165409949882  0.4090775678052310
  0.4196923988815970  0.5808837809440252  0.3283754264121813
  0.3369936595779418  0.5823507537102968  0.7499475827307190
  0.4173776646476640  0.5067148449044259  0.7539589651498686
  0.4199954675863228  0.5807769557607820  0.6724482760281163
  0.3353426234225093  0.6730164651306951  0.1767669588192140
  0.3391980596919331  0.7582604294526651  0.2490142484426027
  0.4039672006664734  0.7582953988647333  0.3314177546386139
  0.3298646877347913  0.7534333461751078  0.5897381770355203
  0.3378512804182907  0.6611880475446354  0.6743410687760716
  0.3372574788010441  0.6626162140695149  0.8347868030804261
  0.3327238592955699  0.9109389104850826  0.0834853084030412
  0.4132928972984985  0.8358448756743114  0.2514967189870743
  0.3359934874055509  0.8407117060757058  0.3248363009973025
  0.4120739224427184  0.9171413922490239  0.3287658220565622
  0.4190585926772741  0.8450820988650629  0.9103909067094393
  0.4272503718124813  0.9250991476887874  0.8300406802238665
  0.5058705627396979 -0.0032815860952065  0.0081342229246944
  0.5063395162940612  0.0841628701806147  0.0862630301664938
  0.4974793535786901  0.0847373556301464  0.2459054287594098
  0.5826876198656435  0.0824638401116654  0.1677772488923647
  0.5823375921517489  0.0090243659242674  0.4169836017957001
  0.5886478106774163  0.0100132847579472  0.5799637940788599
  0.5849012504808989  0.0845559881957918  0.4985407769230170
  0.5867099983997126  0.1608966730039405  0.0910228491370672
  0.5013632771338510  0.2501298450216870  0.2505017636146786
  0.5836876187661610  0.2488090192426662  0.4990576041152417
  0.5049549871402373  0.1693641957067561  0.6704624456164232
  0.5092187465346034  0.2493232116835364  0.7552015085487777
  0.5933411268666475  0.1628011877675045  0.7490710611143442
  0.5863907073048903  0.3246666491560099  0.2511300198355993
  0.5822296199195934  0.3261489879792617  0.4143311088132166
  0.5026313856376975  0.4142599129905634  0.5845694440203917
  0.5827173322871051  0.3370347961639069  0.5847393836217267
  0.5785851408396371  0.4153207809290807  0.4990872499016331
  0.4994511011317243  0.4256472339612157  0.9156527223602960
  0.6118874069870586  0.3303055264610260  0.9202352636277810
  0.5830418736750986  0.5918073681104780  0.1694519795597761
  0.4984787722268020  0.5832351258568876  0.7561683730779653
  0.5810067459005956  0.6706989873970268  0.0841798811542817
  0.5753393718624903  0.6695281797191521  0.2544725099198588
  0.4994160890720612  0.6653019119260937  0.3331915618445832
  0.5756637391531141  0.6690251303613336  0.4161272565915360
  0.5714836814732411  0.7442346405231388  0.3355595213694136
  0.4917842660155403  0.6696502428953480  0.4938855982665285
  0.4946315366743399  0.7387648471352072  0.5779958565610843
  0.5750663684414566  0.7473383360452148  0.4895883402786041
  0.4964711762577653  0.6623730815601331  0.8384237292743100
  0.4986738652044279  0.9163918528937895  0.0853077327073277
  0.5805564315453042  0.8323816655464965  0.0846795302482980
  0.4971779994655085  0.8382808303988279  0.1641187674027987
  0.5956045494062524  0.9186177391544217  0.6605097944439713
  0.5878048334685797  0.9205063292671032  0.8339811960729756
  0.6702446605200100 -0.0059607420993129  0.1656292666839433
  0.7530739674331527  0.0836960933894282  0.3309698009851626
  0.6697170745292187  0.0877568809812604  0.5779484551298425
  0.7482257984285969  0.0031717744301496  0.5788153679043793
  0.7463175820483947  0.0845573803121599  0.6553439030893180
  0.7539153365762021 -0.0046990945025702  0.9215686420320627
  0.6787608842457475  0.2486982562018153  0.0967276983534103
  0.6644582917002857  0.2455806337452919  0.4178858319957373
  0.7536685669314117  0.2448062409087873  0.3331009494443741
  0.6643881918861736  0.1692696654526246  0.4990366275256627
  0.7449917269290717  0.1697776738245427  0.5808696946459181
  0.6699727386175580  0.2507615338469449  0.7389985117342313
  0.7446254428700151  0.2536969574033227  0.6581943765932394
  0.6743839457550288  0.1586488192970202  0.8289353735662134
  0.7484302165902431  0.1548652997682150  0.9205159381234166
  0.6750662284665230  0.3271789952096450  0.1788910764803364
  0.7462206779087098  0.3331157156539080  0.7371859384972985
  0.6835543684715855  0.4187736892891262  0.9136161746255481
  0.6614945043856066  0.5827595221978452  0.4143577589522202
  0.6582259330591872  0.4953880713857104  0.4957062200636098
  0.7453277058877514  0.5038496573663830  0.7516249279974562
  0.7510359045854937  0.5082915917731069  0.9185238500913523
  0.7520284027459467  0.5886937466165690  0.8360946312704274
  0.6749769752284667  0.7389654032591039  0.5800755390097532
  0.7522642840554818  0.6625820628000249  0.5751651299105908
  0.7505110414746338  0.6646744658681599  0.7549456528373458
  0.6711427440801816  0.6661412169250309  0.8364434698950240
  0.7509528500766217  0.6670473515257517  0.9113274488656105
  0.6642950027557485  0.8322632440666974  0.0049849768890499
  0.6679393314340680  0.9111900171254403  0.0818154366628366
  0.6652100979537657  0.9201489503370780  0.2498534287452435
  0.7530043779195733  0.9177673585094651  0.3391573993852657
  0.7476395236035404  0.8286630572373072  0.9196490085377717
  0.9163098445817393 -0.0052699717116689  0.0905250773726211
  0.8361696228796808 -0.0052379942826992  0.1681158954405450
  0.8359344627345414  0.0813168413346191  0.2545214149708576
  0.9141183309415623  0.0884986186123679  0.4944505780528482
  0.9090863885884882  0.0903898032639489  0.6626821691749283
  0.8296516968780689  0.0817095757649085  0.9125801834046084
  0.9030146256705686  0.2538118426917350 -0.0011027188698346
  0.8389016701430198  0.1654748323338268  0.1768359208556754
  0.9146373574137593  0.2493362994833583  0.1769662111016476
  0.8343903843118373  0.1606359902779515  0.3309437174160305
  0.8341166794913307  0.2476705472134957  0.4124390567819766
  0.9088285561851160  0.1684344456358281  0.5799478232167686
  0.9094409124737133  0.2443418741120169  0.6627202706029331
  0.8216660208401000  0.1624633505097694  0.8372614375855060
  0.8216190192785622  0.3316381869064397  0.0060792094212131
  0.9212912924033100  0.3271478501616625  0.2555114233967108
  0.8381764866659835  0.3311914796162339  0.3372739323288959
  0.9121789492357852  0.4249736889804440  0.6661442478087322
  0.8230772124993926  0.3333521835726270  0.8186794495712328
  0.9099698929094909  0.5036544829951753  0.0861922511197175
  0.9243309867755045  0.5865695200003448  0.1767641283385447
  0.9237505733461089  0.5028734520398109  0.4153652711250933
  0.8364948771836718  0.5040977681311328  0.4896871004765124
  0.9116217881620127  0.5859262163945385  0.8321512825465081
  0.9315279005381726  0.6653546094766832  0.2582830047981114
  0.9311445776605030  0.7492271890874487  0.3390016545594484
  0.8279042939163395  0.7455955029929806  0.7503310531835272
  0.8303007902201175  0.6671589102012425  0.8305730974242362
  0.8296170819936624  0.7497766826500127  0.9140506449592105
  0.9106917604145177  0.7440654775179936  0.8342653776185169
  0.9166623563380958  0.8292502742353171  0.0853920807810640
  0.9114632796717047  0.8259239753637283  0.5820205903009129
  0.8315571784454786  0.8249508608529137  0.6636794312657536
  0.9093298421087546  0.9099344927424631  0.8328979170743707
  0.6697668745243731  0.1576989763927241  0.0153228262146371
  0.2571255136090875  0.5924845525423745  0.8345826253794499
  0.3337433454265264  0.4975493693310402  0.0035044297651663
  0.4878584178805165  0.5874510447987835  0.5768178528423410
  0.4983305375418305  0.0832580501978285  0.4163965865084193
  0.0019214146296256  0.2492393912150825  0.2434894140590403
  0.6642248778847643  0.0105832323716608  0.4976532297154443
  0.6676865676889873  0.1647348935010743  0.1722459993736786
  0.6550441192280638  0.5872003508783229  0.2559562077079331
 -0.0082117407195724  0.0850806212023430  0.0861192807295827
 -0.0093603130233623  0.1738626254104092  0.6654376031890330
  0.9119741106192786  0.1660883218027310  0.0940448621164723
  0.6639561635137342  0.8338330051960997  0.8340035370623157
  0.0788440115520498  0.9101224467841955  0.8203824666708004
  0.5090885582874027  0.2473111687661270  0.5859804960339930
  0.2524576732379866  0.1734003805939545  0.4051321268963721
  0.4242384161790914  0.4027602204964552  0.4971730029400030
  0.8338076424648014  0.7389387122882914  0.0887898389632684
  0.2486652350881042  0.7449482139292894  0.8290039914112844
 -0.0019779529328911  0.3297284761167440  0.6638765176591055
  0.8372180764074285  0.4103553805121372  0.2622000140860178
  0.5755236943422012  0.8325252782457435  0.4130798202768724
  0.2530435088908840  0.4100002568026189  0.1594315423111146
 -0.0101013461995495  0.5835922408114270  0.9117039187423673
  0.5896745727411846  0.0868699606801442  0.6618493982918161
  0.3411974413644444  0.7530624978336905  0.0871815852487958
  0.6648366500541225  0.4210151177832306  0.7418989177154995
  0.2497061501361024  0.8435012796811131  0.2429619970561902
  0.0795034293407003  0.4078851671677007  0.0018209288796996
  0.8338788326271496  0.0009868121077213  0.6543683926677818
  0.0792593650016603  0.7532423507329894  0.8312064177823654
  0.0043074956678758  0.7375127887219716  0.5771020687668542
  0.5075115254366056  0.4978547602169116  0.1580749290640937
  0.6557213762273649  0.8261143010466721  0.6631657773382720
  0.2471416692139862  0.7616957116790866  0.3174131563016357
  0.1625757561396013  0.2575070457924825  0.0865794400099767
  0.9180145318794025  0.4268226750080161  0.4946593287040105
  0.0023410175547381  0.1591374201115185  0.3354141011841808
  0.1500878081093054  0.0111879718351828  0.8341150583170237
  0.5073919033483670  0.3294492737743100  0.6680795391911915
  0.4236486490550409  0.7483014126749482  0.8355246174009263
  0.0870834372593268  0.2418763009857089  0.3331905296631282
  0.4239369320075997  0.4230517605816148  0.8265936534122847
  0.1545527477629336  0.0783037428301855  0.9354632182682731
  0.3351949580223911  0.5873675355468322  0.0905888420669431
  0.4172539180965106  0.5760634508744956  0.8357296017940899
  0.4994848513454379  0.0008814519130316  0.1693135154997614
  0.1666609436184629  0.7534453653810772  0.5957908574722515
  0.4107565270905961  0.0083962771288219  0.4126512699940536
  0.6778560462022748  0.5081757278187330  0.0009182813075580
  0.9022216895137062  0.0013212461028049  0.7536770336217368
 -0.0117338094324559  0.3304438284039946  0.0068693885665540
  0.8280958927471442  0.2504146334655290  0.5812839357197642
  0.0000311090133290  0.0008238959653659  0.8201392214482323
  0.8360328039420050  0.9153781339467038  0.0903316380511717
  0.5844709606545203  0.2439396059866453  0.3327909027367361
  0.6632394697934040  0.3312904505538556  0.6648273319475725
  0.9292413663138319  0.4097680134782153  0.3360733268065927
  0.7528279279087010 -0.0056643014697178  0.7374608177226214
  0.0711036133237291 -0.0126107425535313  0.5926060445520689
  0.8352131824297000  0.5880112083588344  0.9110321764730801
  0.1561097007320071  0.7546471469865496  0.2439362848530195
  0.7520866660273061  0.0820553790522156  0.0018696778648493
 -0.0053888394917690  0.3396508618246266  0.8203935960706537
  0.2515510110069381  0.4150977751749812  0.6737588502149988
  0.8358325615003765  0.2467596489100294  0.2604838086448628
  0.7511831485041364  0.5810582535132289  0.4890746229406494
  0.1576295480221645  0.6765035386708981 -0.0015781957269719
  0.4271251061940934  0.0803729980170703  0.0074596916956762
  0.3259960725825302  0.3356847295503708 -0.0045725987256454
  0.9046371903724510  0.3340519302548202  0.0868510444981122
  0.5882170155459173  0.2516910661519189  0.1646195521991949
  0.7551569746352210 -0.0098254956508784  0.2499344645303979
  0.8356194072952181  0.6724103492283113 -0.0067018870890475
  0.5087976639758165 -0.0010868519173417  0.8356174525041998
  0.8325539586779231  0.0028920071206688  0.5018385011560965
  0.6591043652058044  0.7471930265002754  0.0826817659793163
  0.7440641768498842  0.0943582823250290  0.4971594199466834
  0.2425866587371367  0.9176808445814741  0.1621793300340789
  0.3353842111764029  0.2531216617557407  0.0810016239684608
  0.5014006224675079  0.3260714023227029  0.3253659115918867
  0.4985325957489025  0.0925442630158840  0.5851230745590023
  0.1497136517481183  0.9197063499882530  0.0843269217252186
  0.0753618985895742  0.0854162665931450  0.6561621045911051
  0.5074157904371316  0.0820956236456730  0.7430971774446353
  0.4187141965697582  0.6696682355718028  0.0855320143892096
  0.0864441885871862  0.0864913505094364  0.3247114022105488
  0.4195417785618366  0.4955658123755993  0.9185288876700481
 -0.0196365768559195  0.0000190146333528  0.6706634832874057
  0.1711984365700128  0.0798048253903707  0.5886352658376069
  0.5814088308431227  0.1700315231455763  0.4242044945736143
  0.6669946494166056  0.0700228055091898  0.9179466200270746
  0.6732597113766108  0.9185035089279305  0.9317142151121903
  0.6724475733564111  0.2499839008208951  0.2528396928957217
  0.2530289899390010  0.2513039828180599  0.6775858749097496
  0.6575638806180862  0.3294546985818311  0.4991757426547409
  0.4176032616554232  0.4924225637783932  0.0866144084571163
  0.3380357590083565  0.2541864887285953  0.2408608756971424
  0.7511144766240752  0.7471893242995682  0.1865901657284824
  0.1581995869744465  0.2437864180207455  0.7492972977496615
  0.0101552866614752  0.6657057445503837  0.3460609817652370
  0.4982250596621224  0.7439056679106945  0.7514197078451570
  0.5138304937273915  0.3440856945912834 -0.0132794852806370
  0.7578763567302528  0.4241463559260876  0.0055235160651040
  0.3296524351633042  0.4175608491616562  0.9164695381129170
  0.5789154981109964  0.6693015212572417  0.5644916249642874
  0.1492372026562354  0.9253514484790013  0.9140896490202429
  0.1010791188739265  0.6679511041205324  0.4171240925398684
  0.5867693285134306  0.7306934378462090  0.6609877132927809
  0.4178132315397330  0.5888333704262337  0.1710002149645463
  0.3409968908669519  0.9179897048728449  0.4143653138808812
  0.7638814991855154  0.0768272436158524  0.1732630854187187
 -0.0088075662532155  0.0957514229323392  0.7429054496843087
  0.5940888971677482  0.0791515317504460  0.8267843022755645
  0.0043248236348212  0.4186322190431785  0.4243312070695523
  0.1742450601377095  0.6635138126399981  0.5107800772556520
  0.0815432455664072  0.8289471928123752  0.0863872830127762
  0.6587048705269443  0.9194336647267747  0.5722968605298455
  0.7522018022746908  0.3343108982309378  0.9103371826549695
  0.6586422238740572  0.4226279076740606  0.5785394095493150
  0.5715495133501474  0.7574191363442474  0.1696716661960868
  0.5891353745997494 -0.0019895234237207  0.2415738470087043
  0.7495921503984633  0.3207571364802236  0.4104263553435858
  0.2543166318908324  0.7522952312639429  0.1755502076515269
  0.1605920398733320  0.0920491599023192  0.7412674922018591
  0.8333060868663437  0.9168629281763390  0.4153035865497199
  0.8300598079129125  0.6650013865394763  0.4949255738427521
 -0.0041563272764032 -0.0055325353354121  0.1650783554345269
  0.8504514954687441  0.6639444285207633  0.1793574816087128
  0.9063499916019121  0.8152624044091089  0.7561156052866733
  0.8355076623272345  0.2460363524821186  0.0913037043199450
  0.5131295953405682  0.1643441738004264  0.0046169837950420
  0.0808001632607058  0.0018272088832938  0.7368285294314119
  0.4980946157237934  0.1733365615846201  0.1561773203577560
  0.5813747653224307  0.5819290563370647  0.8377808527492036
  0.0851347046406304  0.8335654258505593  0.4167544236690113
  0.4267022880175383  0.2448844679242943  0.8470270107417481
  0.7452327138689762  0.5007559086498574  0.4140730346661463
 -0.0067673382635968  0.2457908851760643  0.5800901160512758
  0.1588298837212938  0.7514607823507176  0.0858325973039778
  0.0825484997402948  0.9132553023589280  0.1791273755601522
  0.5684713297207119  0.4989130905647566  0.5759750726515426
  0.3413712842610743  0.7470412577015052  0.7581669549972387
  0.4902133027438904  0.4934769318321117  0.4911237985119614
  0.3435830180862525  0.4905964058733636  0.3205320232617806
  0.0792400447385000  0.4901900999843578  0.9158439569138447
  0.5166238214216858  0.9218950307688633  0.5852314664874038
  0.2406352691062556  0.2527920237083218  0.3159371122088161
  0.2528370664163677  0.1576923664617468  0.7513620359062446
  0.2456279634219954  0.8423085120055764  0.9001356794579500
  0.5926001060342955  0.4993378300408106  0.0820716155330980
  0.2556300362104137 -0.0056810333645922  0.4103638757000312
  0.7461705989487397  0.2513054427409769  0.8186361039075524
  0.3369883677214597  0.0839793431697363  0.0844760062560336
  0.4287943749322648  0.1725312253716134  0.2476623733681782
  0.0086613084356414  0.9152562581476481  0.4160858083413374
  0.8340319450695233  0.9076641337196703  0.7461277297835810
  0.4236519689830899  0.0017489708234159  0.9247615535752662
  0.2555253156330450  0.0844592046439456  0.5028699923100044
  0.1521994625716868  0.1643509989807874  0.1597439528811505
  0.3421748058237711  0.4888597171712122  0.5068030546522965
  0.2447348181270480 -0.0010355104889690  0.9312358372108224
  0.3472911886001115  0.0054766607111509  0.8377822252091546
  0.8255313530590921  0.5038675616753379  0.8322920353331524
  0.8335156471031876  0.1678657487714893  0.4951931675861026
  0.3450084604879915  0.9312147670663612  0.7482242414928668
  0.1658969969762731  0.2499341127030433  0.4165706689150288
  0.3359266964170954  0.1714537498895047  0.3155331945077021
  0.4165418035155318  0.3352020163209781  0.2428151173826503
  0.2512394981835307  0.6767064820814400  0.0843822648479785
  0.8338068205117428  0.8277696235113909  0.1706871981558977
  0.4919019709557013  0.6651467907940795  0.6619707798272526
  0.0872122806502936  0.2452203794556312  0.8375734287275466
  0.6022671991837580  0.4157756069531879 -0.0095527201797143
  0.1711108453142982  0.6603436636557529  0.6603485445277993
  0.8375687886281010  0.5119294073362435  0.1783377761971276
  0.9063861692850597  0.1762105904720830  0.9086804045970760
  0.4246243636276655  0.3318271828184448  0.5884242404375156
  0.6019011101826143  0.3372517193824117  0.0863570234634315
  0.5788151671834011  0.8394362972628984  0.2592327322618222
  0.4246780254464713  0.4936787448039390  0.5883482930881896
  0.5855913878314299  0.7458795655174475  0.8384478597835096
  0.5043292847032558  0.4114236822943389  0.2449964305143138
  0.1765344867491018  0.7616778275421318  0.4132741866445448
  0.7470115291782807  0.4177659379220140  0.1828076883347702
  0.1738805857770661  0.4251873368516192  0.7529466539411405
  0.2584668156825379  0.7507816987189382  0.6752362252250793
  0.8446090118057761  0.4993688265952557  0.3347055650935897
  0.4227672971819588  0.9203459998961298  0.5092073409388050
  0.4168587124083394  0.3370859677747028  0.0781813679533975
  0.0838208780128711  0.5808244252484117  0.6613941735494299
  0.3418195499157012  0.8402069983807088  0.1679444369652519
  0.2445898216567493  0.6673425431337627  0.4122393468710995
  0.9117226809287962  0.6661949847541616  0.7536720844165761
  0.1621155467040486  0.5888314760329864  0.9273185547703968
  0.6801244547489981  0.5004860550724309  0.8388158145040862
  0.6739305195351853 -0.0010189484951257  0.3346299184619747
  0.1657723202846321  0.6645134472209706  0.3265965124152516
  0.6734395436090611  0.5886835188898868  0.7587415753185305
  0.2600921287841119  0.6636630617839983  0.5978889605886372
  0.5855631883686095 -0.0088341264026923  0.9255699357437517
  0.1583141116409733  0.5878176994061106  0.0784530459170386
  0.5039797213065134  0.0103376291606735  0.5039289418905522
  0.4916658340855112  0.8262136104080207  0.5039958761749416
  0.4193280406064490  0.1730377086765388  0.5907740387581997
  0.3404025188335724  0.0101996238973915  0.6670540766382687
  0.0797368746336159  0.6569909040661639  0.7482781675199563
  0.3443242975152885  0.5004801869206292  0.6740547489410684
  0.6026636889654243  0.1597111660676688  0.9214037573181049
  0.0857772774015707  0.3339632375798596  0.7468544918921860
  0.1610929430006699  0.1544072232222214  0.8420319436678438
  0.4973138671784983  0.7509784851786236  0.2584605845417498
  0.7498737988666689  0.2388828439539050  0.0059886974065466
  0.1677713411731752  0.2544390674153132  0.9236845246014662
  0.2452950949504054  0.3322474712551066  0.7544001573948783
  0.0735604684359625  0.9112784568605099  0.6761629647325678
  0.7440943785776601  0.4289298559339564  0.6598511540110310
  0.7589988981813673  0.1584370414246032  0.0968369444627086
  0.4153824317061590  0.7603199615660495 -0.0090856694821346
  0.5893245545191355  0.8148423923139977  0.5709391894316970
  0.2459901630541044  0.0810556906827222  0.3160002624732863
  0.2438295077935261  0.0075445409279560  0.7473201917063332
  0.1510068713235460  0.0776411270919914  0.0839775116906001
  0.9165597313942002  0.9008198026244919  0.6634416238108377
  0.0901437396125467  0.4237197215825168  0.5044207043209178
  0.2473155237513441  0.3419998654073906  0.2483833586881934
  0.4216074338265141  0.9176509568414877  0.1639153243617415
  0.2606903805878977  0.5767136693179159  0.5092093516721113
  0.8367431239679676  0.7555141367319264  0.4165042401950366
  0.4199399569500268  0.8268606222031164  0.5942196124864541
  0.3443545224153333  0.2560912217996034  0.5909721855654672
  0.1557682666174173  0.5786966793570117  0.2426971471761601
  0.7492528475955376  0.7409935315993402  0.6665421762732411
  0.5894747576003063  0.5050208097311790  0.9207607651474675
  0.1655599838112554  0.4997655775526204  0.0004177460661570
 -0.0007584632446398  0.8333927992326452  0.5055579885126187
  0.4941855337466126  0.1740309647895151  0.5007478716809661
 -0.0140013732015365  0.9037346713710179  0.7524301706544975
  0.6002683384486944  0.2449139354064636  0.8240114594735198
  0.1810230111066349  0.4999416107342797  0.5084000297296438
  0.2439674001551444  0.0764175350623044  0.1566616925486780
  0.2632028291097773  0.1770515958488772  0.5923254819353551
  0.3329897152513525  0.3358147908375711  0.4896738888839947
  0.5055141108665823  0.9259231323863401  0.7420953986566413
  0.8174353271199960  0.2462255834542234  0.9160213459735619
  0.2523517342603818  0.7649618544426067 -0.0090309972263406
  0.6682872482555214  0.6545979852379413  0.6596173464389371
  0.4100763049080832  0.1700604197472428  0.4075536961406384
  0.9109890877787304  0.0884644229146897  0.8371029853254861
  0.0838747122125496  0.8389914591963991  0.5787569292313685
  0.6690364856373046  0.6701553604106868  0.4910017007674057
 -0.0027510848671102  0.4237274755458161  0.7353784340491275
  0.4952289774399581  0.9129396342270238  0.2536348605737373
  0.3365677369662193  0.4185761740262534  0.4104710358322355
  0.7488042629743007  0.9055042270597761  0.8383153738850271
  0.5740100637937882  0.5020136061717494  0.2559370063890011
  0.0855303687328884  0.5054720038548713  0.5837916042595075
  0.9261308747225890  0.5001363706163132  0.2554203222625713
  0.2474257784195359  0.4884683749822200  0.2392014593867590
  0.8251366351544498  0.3365045679142671  0.6605572798447379
  0.6697889404451579  0.8500231192743124  0.3383952813511293
  0.3228378565873942  0.6680676577326017  0.4986248763642412
  0.1561584499645186  0.4929137885621031  0.1575258823363967
  0.3258691340378819  0.1666183930111868  0.0048788840115289
  0.8374357801876711  0.9128441772391840  0.2502269155843523
  0.4321853363048848  0.8371519942949672  0.7422974278224368
  0.8348008275768782  0.3304915881117452  0.1805326341359543
  0.5140305903214216  0.8280770619122048  0.6554322337670264
  0.8368759169942654  0.8353192389034970  0.3352234719269430
 -0.0175893814051686  0.4064433934721615  0.9227836007264257
  0.2417214916111987  0.1649414403731233  0.2373980975916818
  0.4164073291712926  0.2513780034873488 -0.0164528282933864
  0.5020623625471046  0.7546072637948832  0.9151992786861251
  0.5869797850698705  0.0762830074320135  0.0144144171473028
  0.4286121114798126  0.3263540486871692  0.7653918148918291
  0.1631437555505644  0.7430199687764365  0.7432780526675662
  0.6684423726116929  0.7376396644347509  0.7512073810147351
  0.3373822764987069  0.6691091079883824  0.0003217937419585
  0.1540968701851973  0.6690758981831670  0.1665221059899219
  0.4284025487708995  0.4109064204347894  0.6839131236713308
  0.9156681946922032  0.8255355135410370  0.9055033044634226
 -0.0020946581358664  0.0001831793502482  0.4979030715787338
  0.8231044153891703  0.7518132022222224  0.5796780458750544
  0.0919599733191033  0.3363883949732899  0.4274529818580088
  0.2539486162689295  0.7572892167453944  0.5105733911037791
  0.0852756533391631  0.3404312358197031  0.9158954062141118
  0.7453166761900388  0.8192968895581507  0.0856860673205049
  0.3366158385153978  0.1570029234530743  0.8369986778711351
  0.3447976152813870  0.8473014453215438  0.8264022345377443
  0.3382684969974063  0.0784156025328145  0.2377313567794266
  0.9162142998746839  0.7475133265836350  0.5022018530526378
  0.5815361768491415  0.4979352448509549  0.4162419868245532
  0.3370153524893843  0.7543168072159100  0.9028159072122524
  0.1600908029764197  0.8340316803945760  0.8218381147549125
  0.6730551450001130  0.0795342135558191  0.2477922606745095
  0.8256753808965566  0.1675321390090170  0.6551768218060877
  0.8242457347383872  0.4217739018784066  0.9148511517997571
  0.9089073095949470  0.9124996452369862  0.0020695328518637