Mo Fe 
 1.0000000000000000
    23.3520000000000039    0.0000000000000000    0.0000000000000000
     0.0000000000000000   23.3520000000000039    0.0000000000000000
     0.0000000000000000    0.0000000000000000   23.3520000000000039
 Mo  Fe 
 627 237
Cartesian
  0.0000000000000000  0.0000000000000000  0.0000000000000000
  0.0000000000000000  1.9460000000000002  1.9460000000000002
  0.0000000000000000  0.0000000000000000  7.7840000000000007
  0.0000000000000000  1.9460000000000002  9.7300000000000004
  1.9460000000000002  1.9460000000000002  7.7840000000000007
  0.0000000000000000  0.0000000000000000 11.6760000000000002
  0.0000000000000000  1.9460000000000002 13.6219999999999999
  1.9460000000000002  0.0000000000000000 13.6219999999999999
  1.9460000000000002  1.9460000000000002 11.6760000000000002
  0.0000000000000000  0.0000000000000000 19.4600000000000009
  0.0000000000000000  1.9460000000000002 21.4060000000000024
  1.9460000000000002  0.0000000000000000 21.4060000000000024
  1.9460000000000002  1.9460000000000002 19.4600000000000009
  0.0000000000000000  3.8920000000000003  0.0000000000000000
  0.0000000000000000  5.8380000000000010  1.9460000000000002
  1.9460000000000002  5.8380000000000010  0.0000000000000000
  0.0000000000000000  3.8920000000000003  3.8920000000000003
  0.0000000000000000  5.8380000000000010  5.8380000000000010
  1.9460000000000002  3.8920000000000003  5.8380000000000010
  1.9460000000000002  5.8380000000000010  3.8920000000000003
  0.0000000000000000  3.8920000000000003  7.7840000000000007
  1.9460000000000002  3.8920000000000003  9.7300000000000004
  1.9460000000000002  5.8380000000000010  7.7840000000000007
  0.0000000000000000  3.8920000000000003 11.6760000000000002
  0.0000000000000000  5.8380000000000010 13.6219999999999999
  1.9460000000000002  3.8920000000000003 13.6219999999999999
  1.9460000000000002  5.8380000000000010 11.6760000000000002
  0.0000000000000000  3.8920000000000003 15.5680000000000014
  0.0000000000000000  5.8380000000000010 17.5140000000000029
  1.9460000000000002  3.8920000000000003 17.5140000000000029
  1.9460000000000002  5.8380000000000010 15.5680000000000014
  0.0000000000000000  3.8920000000000003 19.4600000000000009
  0.0000000000000000  5.8380000000000010 21.4060000000000024
  1.9460000000000002  3.8920000000000003 21.4060000000000024
  1.9460000000000002  5.8380000000000010 19.4600000000000009
  0.0000000000000000  7.7840000000000007  0.0000000000000000
  1.9460000000000002  9.7300000000000004  0.0000000000000000
  0.0000000000000000  9.7300000000000004  5.8380000000000010
  1.9460000000000002  7.7840000000000007  5.8380000000000010
  1.9460000000000002  9.7300000000000004  3.8920000000000003
  0.0000000000000000  7.7840000000000007  7.7840000000000007
  1.9460000000000002  7.7840000000000007  9.7300000000000004
  1.9460000000000002  7.7840000000000007 13.6219999999999999
  1.9460000000000002  9.7300000000000004 11.6760000000000002
  0.0000000000000000  7.7840000000000007 15.5680000000000014
  0.0000000000000000  9.7300000000000004 17.5140000000000029
  0.0000000000000000  9.7300000000000004 21.4060000000000024
  1.9460000000000002  7.7840000000000007 21.4060000000000024
  0.0000000000000000 13.6219999999999999  1.9460000000000002
  1.9460000000000002 11.6760000000000002  1.9460000000000002
  0.0000000000000000 13.6219999999999999  5.8380000000000010
  1.9460000000000002 11.6760000000000002  5.8380000000000010
  1.9460000000000002 13.6219999999999999  3.8920000000000003
  0.0000000000000000 11.6760000000000002  7.7840000000000007
  0.0000000000000000 13.6219999999999999  9.7300000000000004
  1.9460000000000002 11.6760000000000002  9.7300000000000004
  1.9460000000000002 13.6219999999999999  7.7840000000000007
  1.9460000000000002 13.6219999999999999 11.6760000000000002
  0.0000000000000000 11.6760000000000002 15.5680000000000014
  0.0000000000000000 13.6219999999999999 17.5140000000000029
  1.9460000000000002 11.6760000000000002 17.5140000000000029
  1.9460000000000002 13.6219999999999999 15.5680000000000014
  0.0000000000000000 13.6219999999999999 21.4060000000000024
  1.9460000000000002 11.6760000000000002 21.4060000000000024
  1.9460000000000002 13.6219999999999999 19.4600000000000009
  0.0000000000000000 15.5680000000000014  0.0000000000000000
  1.9460000000000002 17.5140000000000029  0.0000000000000000
  0.0000000000000000 15.5680000000000014  3.8920000000000003
  1.9460000000000002 15.5680000000000014  5.8380000000000010
  1.9460000000000002 17.5140000000000029  3.8920000000000003
  0.0000000000000000 15.5680000000000014  7.7840000000000007
  1.9460000000000002 15.5680000000000014  9.7300000000000004
  1.9460000000000002 17.5140000000000029  7.7840000000000007
  0.0000000000000000 15.5680000000000014 11.6760000000000002
  0.0000000000000000 17.5140000000000029 13.6219999999999999
  1.9460000000000002 15.5680000000000014 13.6219999999999999
  1.9460000000000002 17.5140000000000029 11.6760000000000002
  0.0000000000000000 15.5680000000000014 15.5680000000000014
  1.9460000000000002 15.5680000000000014 17.5140000000000029
  1.9460000000000002 17.5140000000000029 15.5680000000000014
  0.0000000000000000 15.5680000000000014 19.4600000000000009
  1.9460000000000002 15.5680000000000014 21.4060000000000024
  0.0000000000000000 19.4600000000000009  0.0000000000000000
  1.9460000000000002 21.4060000000000024  0.0000000000000000
  0.0000000000000000 19.4600000000000009  3.8920000000000003
  0.0000000000000000 21.4060000000000024  5.8380000000000010
  1.9460000000000002 19.4600000000000009  5.8380000000000010
  0.0000000000000000 19.4600000000000009  7.7840000000000007
  0.0000000000000000 21.4060000000000024  9.7300000000000004
  1.9460000000000002 19.4600000000000009  9.7300000000000004
  1.9460000000000002 21.4060000000000024  7.7840000000000007
  0.0000000000000000 19.4600000000000009 11.6760000000000002
  0.0000000000000000 21.4060000000000024 13.6219999999999999
  1.9460000000000002 21.4060000000000024 11.6760000000000002
  0.0000000000000000 21.4060000000000024 17.5140000000000029
  1.9460000000000002 19.4600000000000009 17.5140000000000029
  0.0000000000000000 19.4600000000000009 19.4600000000000009
  0.0000000000000000 21.4060000000000024 21.4060000000000024
  1.9460000000000002 21.4060000000000024 19.4600000000000009
  3.8920000000000003  0.0000000000000000  0.0000000000000000
  3.8920000000000003  1.9460000000000002  1.9460000000000002
  5.8380000000000010  0.0000000000000000  1.9460000000000002
  5.8380000000000010  1.9460000000000002  0.0000000000000000
  3.8920000000000003  0.0000000000000000  3.8920000000000003
  3.8920000000000003  1.9460000000000002  5.8380000000000010
  5.8380000000000010  0.0000000000000000  5.8380000000000010
  3.8920000000000003  0.0000000000000000  7.7840000000000007
  5.8380000000000010  0.0000000000000000  9.7300000000000004
  5.8380000000000010  1.9460000000000002  7.7840000000000007
  3.8920000000000003  0.0000000000000000 11.6760000000000002
  3.8920000000000003  1.9460000000000002 13.6219999999999999
  5.8380000000000010  0.0000000000000000 17.5140000000000029
  5.8380000000000010  1.9460000000000002 15.5680000000000014
  3.8920000000000003  0.0000000000000000 19.4600000000000009
  5.8380000000000010  0.0000000000000000 21.4060000000000024
  3.8920000000000003  5.8380000000000010  1.9460000000000002
  3.8920000000000003  3.8920000000000003  3.8920000000000003
  3.8920000000000003  5.8380000000000010  5.8380000000000010
  5.8380000000000010  3.8920000000000003  5.8380000000000010
  5.8380000000000010  5.8380000000000010  3.8920000000000003
  3.8920000000000003  3.8920000000000003  7.7840000000000007
  5.8380000000000010  3.8920000000000003  9.7300000000000004
  5.8380000000000010  5.8380000000000010  7.7840000000000007
  5.8380000000000010  3.8920000000000003 13.6219999999999999
  5.8380000000000010  5.8380000000000010 11.6760000000000002
  3.8920000000000003  3.8920000000000003 15.5680000000000014
  5.8380000000000010  3.8920000000000003 17.5140000000000029
  5.8380000000000010  5.8380000000000010 15.5680000000000014
  3.8920000000000003  3.8920000000000003 19.4600000000000009
  5.8380000000000010  5.8380000000000010 19.4600000000000009
  3.8920000000000003  7.7840000000000007  0.0000000000000000
  3.8920000000000003  9.7300000000000004  1.9460000000000002
  5.8380000000000010  7.7840000000000007  1.9460000000000002
  5.8380000000000010  9.7300000000000004  0.0000000000000000
  5.8380000000000010  7.7840000000000007  5.8380000000000010
  5.8380000000000010  9.7300000000000004  3.8920000000000003
  3.8920000000000003  7.7840000000000007  7.7840000000000007
  5.8380000000000010  7.7840000000000007  9.7300000000000004
  5.8380000000000010  9.7300000000000004  7.7840000000000007
  3.8920000000000003  9.7300000000000004 13.6219999999999999
  5.8380000000000010  9.7300000000000004 11.6760000000000002
  3.8920000000000003  7.7840000000000007 15.5680000000000014
  5.8380000000000010  7.7840000000000007 17.5140000000000029
  5.8380000000000010  9.7300000000000004 15.5680000000000014
  3.8920000000000003  7.7840000000000007 19.4600000000000009
  3.8920000000000003  9.7300000000000004 21.4060000000000024
  5.8380000000000010  7.7840000000000007 21.4060000000000024
  5.8380000000000010  9.7300000000000004 19.4600000000000009
  3.8920000000000003 11.6760000000000002  0.0000000000000000
  3.8920000000000003 13.6219999999999999  1.9460000000000002
  5.8380000000000010 11.6760000000000002  1.9460000000000002
  5.8380000000000010 13.6219999999999999  0.0000000000000000
  3.8920000000000003 11.6760000000000002  3.8920000000000003
  3.8920000000000003 13.6219999999999999  9.7300000000000004
  5.8380000000000010 11.6760000000000002  9.7300000000000004
  5.8380000000000010 13.6219999999999999  7.7840000000000007
  3.8920000000000003 11.6760000000000002 11.6760000000000002
  3.8920000000000003 13.6219999999999999 13.6219999999999999
  5.8380000000000010 13.6219999999999999 11.6760000000000002
  3.8920000000000003 11.6760000000000002 15.5680000000000014
  3.8920000000000003 13.6219999999999999 17.5140000000000029
  5.8380000000000010 11.6760000000000002 17.5140000000000029
  5.8380000000000010 13.6219999999999999 15.5680000000000014
  3.8920000000000003 11.6760000000000002 19.4600000000000009
  5.8380000000000010 11.6760000000000002 21.4060000000000024
  3.8920000000000003 15.5680000000000014  0.0000000000000000
  3.8920000000000003 17.5140000000000029  1.9460000000000002
  5.8380000000000010 17.5140000000000029  0.0000000000000000
  3.8920000000000003 17.5140000000000029  5.8380000000000010
  5.8380000000000010 15.5680000000000014  5.8380000000000010
  5.8380000000000010 17.5140000000000029  3.8920000000000003
  5.8380000000000010 17.5140000000000029  7.7840000000000007
  3.8920000000000003 15.5680000000000014 11.6760000000000002
  3.8920000000000003 17.5140000000000029 13.6219999999999999
  5.8380000000000010 15.5680000000000014 13.6219999999999999
  5.8380000000000010 17.5140000000000029 11.6760000000000002
  3.8920000000000003 17.5140000000000029 17.5140000000000029
  5.8380000000000010 15.5680000000000014 17.5140000000000029
  5.8380000000000010 17.5140000000000029 15.5680000000000014
  3.8920000000000003 15.5680000000000014 19.4600000000000009
  5.8380000000000010 15.5680000000000014 21.4060000000000024
  5.8380000000000010 17.5140000000000029 19.4600000000000009
  3.8920000000000003 19.4600000000000009  0.0000000000000000
  3.8920000000000003 21.4060000000000024  1.9460000000000002
  5.8380000000000010 19.4600000000000009  1.9460000000000002
  5.8380000000000010 21.4060000000000024  0.0000000000000000
  3.8920000000000003 19.4600000000000009  3.8920000000000003
  3.8920000000000003 21.4060000000000024  5.8380000000000010
  5.8380000000000010 19.4600000000000009  5.8380000000000010
  5.8380000000000010 21.4060000000000024  3.8920000000000003
  3.8920000000000003 19.4600000000000009  7.7840000000000007
  3.8920000000000003 21.4060000000000024  9.7300000000000004
  5.8380000000000010 19.4600000000000009 13.6219999999999999
  5.8380000000000010 21.4060000000000024 11.6760000000000002
  3.8920000000000003 21.4060000000000024 17.5140000000000029
  5.8380000000000010 19.4600000000000009 17.5140000000000029
  3.8920000000000003 19.4600000000000009 19.4600000000000009
  3.8920000000000003 21.4060000000000024 21.4060000000000024
  5.8380000000000010 21.4060000000000024 19.4600000000000009
  7.7840000000000007  0.0000000000000000  0.0000000000000000
  9.7300000000000004  1.9460000000000002  0.0000000000000000
  7.7840000000000007  0.0000000000000000  3.8920000000000003
  7.7840000000000007  1.9460000000000002  5.8380000000000010
  9.7300000000000004  0.0000000000000000  5.8380000000000010
  7.7840000000000007  0.0000000000000000  7.7840000000000007
  7.7840000000000007  1.9460000000000002  9.7300000000000004
  9.7300000000000004  1.9460000000000002  7.7840000000000007
  7.7840000000000007  0.0000000000000000 11.6760000000000002
  7.7840000000000007  1.9460000000000002 13.6219999999999999
  9.7300000000000004  0.0000000000000000 13.6219999999999999
  9.7300000000000004  1.9460000000000002 11.6760000000000002
  7.7840000000000007  0.0000000000000000 15.5680000000000014
  7.7840000000000007  1.9460000000000002 17.5140000000000029
  9.7300000000000004  0.0000000000000000 17.5140000000000029
  9.7300000000000004  1.9460000000000002 15.5680000000000014
  7.7840000000000007  1.9460000000000002 21.4060000000000024
  9.7300000000000004  1.9460000000000002 19.4600000000000009
  7.7840000000000007  3.8920000000000003  0.0000000000000000
  7.7840000000000007  5.8380000000000010  1.9460000000000002
  9.7300000000000004  3.8920000000000003  1.9460000000000002
  7.7840000000000007  3.8920000000000003  3.8920000000000003
  7.7840000000000007  5.8380000000000010  5.8380000000000010
  9.7300000000000004  5.8380000000000010  3.8920000000000003
  7.7840000000000007  5.8380000000000010  9.7300000000000004
  9.7300000000000004  3.8920000000000003  9.7300000000000004
  7.7840000000000007  3.8920000000000003 11.6760000000000002
  7.7840000000000007  5.8380000000000010 13.6219999999999999
  9.7300000000000004  3.8920000000000003 13.6219999999999999
  7.7840000000000007  5.8380000000000010 17.5140000000000029
  9.7300000000000004  3.8920000000000003 17.5140000000000029
  9.7300000000000004  5.8380000000000010 15.5680000000000014
  7.7840000000000007  3.8920000000000003 19.4600000000000009
  7.7840000000000007  5.8380000000000010 21.4060000000000024
  9.7300000000000004  3.8920000000000003 21.4060000000000024
  9.7300000000000004  5.8380000000000010 19.4600000000000009
  7.7840000000000007  7.7840000000000007  0.0000000000000000
  7.7840000000000007  9.7300000000000004  1.9460000000000002
  9.7300000000000004  7.7840000000000007  1.9460000000000002
  9.7300000000000004  9.7300000000000004  0.0000000000000000
  7.7840000000000007  9.7300000000000004  5.8380000000000010
  9.7300000000000004  7.7840000000000007  5.8380000000000010
  9.7300000000000004  9.7300000000000004  3.8920000000000003
  7.7840000000000007  7.7840000000000007  7.7840000000000007
  7.7840000000000007  9.7300000000000004  9.7300000000000004
  9.7300000000000004  9.7300000000000004  7.7840000000000007
  7.7840000000000007  7.7840000000000007 11.6760000000000002
  7.7840000000000007  9.7300000000000004 13.6219999999999999
  9.7300000000000004  7.7840000000000007 13.6219999999999999
  9.7300000000000004  9.7300000000000004 11.6760000000000002
  7.7840000000000007  7.7840000000000007 15.5680000000000014
  7.7840000000000007  9.7300000000000004 17.5140000000000029
  9.7300000000000004  7.7840000000000007 17.5140000000000029
  9.7300000000000004  9.7300000000000004 15.5680000000000014
  9.7300000000000004  7.7840000000000007 21.4060000000000024
  9.7300000000000004  9.7300000000000004 19.4600000000000009
  7.7840000000000007 13.6219999999999999  1.9460000000000002
  9.7300000000000004 13.6219999999999999  0.0000000000000000
  7.7840000000000007 11.6760000000000002  3.8920000000000003
  7.7840000000000007 13.6219999999999999  5.8380000000000010
  9.7300000000000004 11.6760000000000002  5.8380000000000010
  7.7840000000000007 13.6219999999999999  9.7300000000000004
  9.7300000000000004 11.6760000000000002  9.7300000000000004
  7.7840000000000007 11.6760000000000002 11.6760000000000002
  7.7840000000000007 13.6219999999999999 13.6219999999999999
  9.7300000000000004 11.6760000000000002 13.6219999999999999
  9.7300000000000004 13.6219999999999999 11.6760000000000002
  7.7840000000000007 11.6760000000000002 15.5680000000000014
  7.7840000000000007 13.6219999999999999 17.5140000000000029
  9.7300000000000004 13.6219999999999999 15.5680000000000014
  9.7300000000000004 11.6760000000000002 21.4060000000000024
  9.7300000000000004 13.6219999999999999 19.4600000000000009
  7.7840000000000007 15.5680000000000014  0.0000000000000000
  7.7840000000000007 17.5140000000000029  1.9460000000000002
  9.7300000000000004 15.5680000000000014  1.9460000000000002
  9.7300000000000004 17.5140000000000029  0.0000000000000000
  7.7840000000000007 17.5140000000000029  5.8380000000000010
  9.7300000000000004 15.5680000000000014  5.8380000000000010
  9.7300000000000004 17.5140000000000029  3.8920000000000003
  7.7840000000000007 15.5680000000000014  7.7840000000000007
  7.7840000000000007 17.5140000000000029  9.7300000000000004
  9.7300000000000004 15.5680000000000014  9.7300000000000004
  9.7300000000000004 17.5140000000000029  7.7840000000000007
  7.7840000000000007 17.5140000000000029 13.6219999999999999
  9.7300000000000004 17.5140000000000029 11.6760000000000002
  7.7840000000000007 15.5680000000000014 15.5680000000000014
  9.7300000000000004 15.5680000000000014 17.5140000000000029
  9.7300000000000004 17.5140000000000029 15.5680000000000014
  7.7840000000000007 15.5680000000000014 19.4600000000000009
  7.7840000000000007 17.5140000000000029 21.4060000000000024
  9.7300000000000004 15.5680000000000014 21.4060000000000024
  9.7300000000000004 17.5140000000000029 19.4600000000000009
  7.7840000000000007 19.4600000000000009  0.0000000000000000
  7.7840000000000007 21.4060000000000024  1.9460000000000002
  9.7300000000000004 19.4600000000000009  1.9460000000000002
  9.7300000000000004 21.4060000000000024  0.0000000000000000
  7.7840000000000007 21.4060000000000024  5.8380000000000010
  9.7300000000000004 19.4600000000000009  5.8380000000000010
  7.7840000000000007 19.4600000000000009  7.7840000000000007
  7.7840000000000007 21.4060000000000024  9.7300000000000004
  9.7300000000000004 19.4600000000000009  9.7300000000000004
  7.7840000000000007 19.4600000000000009 11.6760000000000002
  7.7840000000000007 21.4060000000000024 13.6219999999999999
  9.7300000000000004 19.4600000000000009 13.6219999999999999
  9.7300000000000004 21.4060000000000024 11.6760000000000002
  7.7840000000000007 19.4600000000000009 15.5680000000000014
  9.7300000000000004 21.4060000000000024 15.5680000000000014
  7.7840000000000007 19.4600000000000009 19.4600000000000009
  7.7840000000000007 21.4060000000000024 21.4060000000000024
  9.7300000000000004 19.4600000000000009 21.4060000000000024
  9.7300000000000004 21.4060000000000024 19.4600000000000009
 11.6760000000000002  0.0000000000000000  0.0000000000000000
 11.6760000000000002  1.9460000000000002  1.9460000000000002
 13.6219999999999999  0.0000000000000000  1.9460000000000002
 13.6219999999999999  1.9460000000000002  0.0000000000000000
 11.6760000000000002  0.0000000000000000  3.8920000000000003
 11.6760000000000002  1.9460000000000002  5.8380000000000010
 13.6219999999999999  0.0000000000000000  5.8380000000000010
 13.6219999999999999  1.9460000000000002  3.8920000000000003
 11.6760000000000002  0.0000000000000000  7.7840000000000007
 11.6760000000000002  1.9460000000000002  9.7300000000000004
 13.6219999999999999  0.0000000000000000  9.7300000000000004
 13.6219999999999999  1.9460000000000002  7.7840000000000007
 11.6760000000000002  0.0000000000000000 11.6760000000000002
 11.6760000000000002  1.9460000000000002 13.6219999999999999
 13.6219999999999999  0.0000000000000000 13.6219999999999999
 13.6219999999999999  1.9460000000000002 11.6760000000000002
 11.6760000000000002  0.0000000000000000 15.5680000000000014
 11.6760000000000002  1.9460000000000002 17.5140000000000029
 13.6219999999999999  0.0000000000000000 17.5140000000000029
 11.6760000000000002  0.0000000000000000 19.4600000000000009
 13.6219999999999999  1.9460000000000002 19.4600000000000009
 11.6760000000000002  3.8920000000000003  0.0000000000000000
 11.6760000000000002  5.8380000000000010  1.9460000000000002
 13.6219999999999999  5.8380000000000010  0.0000000000000000
 11.6760000000000002  3.8920000000000003  3.8920000000000003
 11.6760000000000002  5.8380000000000010  5.8380000000000010
 13.6219999999999999  3.8920000000000003  5.8380000000000010
 13.6219999999999999  5.8380000000000010  3.8920000000000003
 11.6760000000000002  3.8920000000000003  7.7840000000000007
 11.6760000000000002  5.8380000000000010  9.7300000000000004
 13.6219999999999999  5.8380000000000010  7.7840000000000007
 11.6760000000000002  3.8920000000000003 11.6760000000000002
 11.6760000000000002  5.8380000000000010 13.6219999999999999
 13.6219999999999999  3.8920000000000003 13.6219999999999999
 13.6219999999999999  5.8380000000000010 11.6760000000000002
 11.6760000000000002  3.8920000000000003 15.5680000000000014
 11.6760000000000002  5.8380000000000010 17.5140000000000029
 13.6219999999999999  5.8380000000000010 15.5680000000000014
 11.6760000000000002  3.8920000000000003 19.4600000000000009
 11.6760000000000002  5.8380000000000010 21.4060000000000024
 13.6219999999999999  3.8920000000000003 21.4060000000000024
 13.6219999999999999  5.8380000000000010 19.4600000000000009
 11.6760000000000002  7.7840000000000007  0.0000000000000000
 11.6760000000000002  9.7300000000000004  1.9460000000000002
 13.6219999999999999  7.7840000000000007  1.9460000000000002
 13.6219999999999999  9.7300000000000004  0.0000000000000000
 13.6219999999999999  7.7840000000000007  5.8380000000000010
 13.6219999999999999  9.7300000000000004  3.8920000000000003
 11.6760000000000002  7.7840000000000007  7.7840000000000007
 13.6219999999999999  7.7840000000000007  9.7300000000000004
 13.6219999999999999  9.7300000000000004  7.7840000000000007
 11.6760000000000002  7.7840000000000007 11.6760000000000002
 11.6760000000000002  9.7300000000000004 13.6219999999999999
 13.6219999999999999  7.7840000000000007 13.6219999999999999
 13.6219999999999999  9.7300000000000004 11.6760000000000002
 11.6760000000000002  7.7840000000000007 15.5680000000000014
 11.6760000000000002  9.7300000000000004 17.5140000000000029
 13.6219999999999999  7.7840000000000007 17.5140000000000029
 13.6219999999999999  9.7300000000000004 15.5680000000000014
 11.6760000000000002  7.7840000000000007 19.4600000000000009
 11.6760000000000002  9.7300000000000004 21.4060000000000024
 13.6219999999999999  7.7840000000000007 21.4060000000000024
 11.6760000000000002 13.6219999999999999  1.9460000000000002
 13.6219999999999999 11.6760000000000002  1.9460000000000002
 13.6219999999999999 13.6219999999999999  0.0000000000000000
 11.6760000000000002 11.6760000000000002  3.8920000000000003
 11.6760000000000002 13.6219999999999999  5.8380000000000010
 13.6219999999999999 11.6760000000000002  5.8380000000000010
 13.6219999999999999 13.6219999999999999  3.8920000000000003
 13.6219999999999999 13.6219999999999999  7.7840000000000007
 11.6760000000000002 11.6760000000000002 11.6760000000000002
 11.6760000000000002 13.6219999999999999 13.6219999999999999
 13.6219999999999999 11.6760000000000002 13.6219999999999999
 13.6219999999999999 13.6219999999999999 11.6760000000000002
 11.6760000000000002 13.6219999999999999 17.5140000000000029
 13.6219999999999999 11.6760000000000002 17.5140000000000029
 13.6219999999999999 13.6219999999999999 15.5680000000000014
 11.6760000000000002 11.6760000000000002 19.4600000000000009
 13.6219999999999999 11.6760000000000002 21.4060000000000024
 13.6219999999999999 13.6219999999999999 19.4600000000000009
 11.6760000000000002 15.5680000000000014  0.0000000000000000
 13.6219999999999999 15.5680000000000014  1.9460000000000002
 11.6760000000000002 15.5680000000000014  3.8920000000000003
 13.6219999999999999 17.5140000000000029  3.8920000000000003
 11.6760000000000002 15.5680000000000014  7.7840000000000007
 11.6760000000000002 17.5140000000000029  9.7300000000000004
 13.6219999999999999 17.5140000000000029  7.7840000000000007
 11.6760000000000002 17.5140000000000029 13.6219999999999999
 13.6219999999999999 15.5680000000000014 13.6219999999999999
 13.6219999999999999 17.5140000000000029 11.6760000000000002
 11.6760000000000002 15.5680000000000014 15.5680000000000014
 11.6760000000000002 17.5140000000000029 17.5140000000000029
 13.6219999999999999 15.5680000000000014 17.5140000000000029
 13.6219999999999999 17.5140000000000029 15.5680000000000014
 11.6760000000000002 15.5680000000000014 19.4600000000000009
 13.6219999999999999 15.5680000000000014 21.4060000000000024
 13.6219999999999999 17.5140000000000029 19.4600000000000009
 11.6760000000000002 19.4600000000000009  0.0000000000000000
 11.6760000000000002 21.4060000000000024  1.9460000000000002
 13.6219999999999999 19.4600000000000009  1.9460000000000002
 13.6219999999999999 21.4060000000000024  0.0000000000000000
 13.6219999999999999 21.4060000000000024  3.8920000000000003
 13.6219999999999999 19.4600000000000009  9.7300000000000004
 13.6219999999999999 21.4060000000000024  7.7840000000000007
 11.6760000000000002 19.4600000000000009 11.6760000000000002
 11.6760000000000002 21.4060000000000024 13.6219999999999999
 13.6219999999999999 19.4600000000000009 13.6219999999999999
 13.6219999999999999 21.4060000000000024 15.5680000000000014
 11.6760000000000002 19.4600000000000009 19.4600000000000009
 11.6760000000000002 21.4060000000000024 21.4060000000000024
 13.6219999999999999 19.4600000000000009 21.4060000000000024
 13.6219999999999999 21.4060000000000024 19.4600000000000009
 15.5680000000000014  1.9460000000000002  1.9460000000000002
 17.5140000000000029  1.9460000000000002  0.0000000000000000
 15.5680000000000014  1.9460000000000002  5.8380000000000010
 17.5140000000000029  0.0000000000000000  5.8380000000000010
 15.5680000000000014  0.0000000000000000  7.7840000000000007
 15.5680000000000014  1.9460000000000002  9.7300000000000004
 17.5140000000000029  0.0000000000000000  9.7300000000000004
 17.5140000000000029  1.9460000000000002  7.7840000000000007
 15.5680000000000014  1.9460000000000002 13.6219999999999999
 17.5140000000000029  0.0000000000000000 13.6219999999999999
 17.5140000000000029  1.9460000000000002 11.6760000000000002
 15.5680000000000014  0.0000000000000000 15.5680000000000014
 15.5680000000000014  1.9460000000000002 17.5140000000000029
 17.5140000000000029  1.9460000000000002 15.5680000000000014
 15.5680000000000014  0.0000000000000000 19.4600000000000009
 17.5140000000000029  0.0000000000000000 21.4060000000000024
 17.5140000000000029  1.9460000000000002 19.4600000000000009
 15.5680000000000014  3.8920000000000003  0.0000000000000000
 15.5680000000000014  5.8380000000000010  1.9460000000000002
 17.5140000000000029  3.8920000000000003  1.9460000000000002
 17.5140000000000029  5.8380000000000010  0.0000000000000000
 15.5680000000000014  3.8920000000000003  3.8920000000000003
 15.5680000000000014  5.8380000000000010  5.8380000000000010
 15.5680000000000014  3.8920000000000003  7.7840000000000007
 15.5680000000000014  5.8380000000000010  9.7300000000000004
 17.5140000000000029  3.8920000000000003  9.7300000000000004
 17.5140000000000029  5.8380000000000010  7.7840000000000007
 15.5680000000000014  3.8920000000000003 11.6760000000000002
 17.5140000000000029  3.8920000000000003 13.6219999999999999
 15.5680000000000014  3.8920000000000003 15.5680000000000014
 17.5140000000000029  3.8920000000000003 17.5140000000000029
 17.5140000000000029  5.8380000000000010 15.5680000000000014
 15.5680000000000014  3.8920000000000003 19.4600000000000009
 15.5680000000000014  5.8380000000000010 21.4060000000000024
 17.5140000000000029  3.8920000000000003 21.4060000000000024
 15.5680000000000014  7.7840000000000007  0.0000000000000000
 17.5140000000000029  9.7300000000000004  0.0000000000000000
 15.5680000000000014  7.7840000000000007  3.8920000000000003
 15.5680000000000014  9.7300000000000004  5.8380000000000010
 17.5140000000000029  9.7300000000000004  3.8920000000000003
 15.5680000000000014  9.7300000000000004  9.7300000000000004
 17.5140000000000029  9.7300000000000004  7.7840000000000007
 15.5680000000000014  7.7840000000000007 11.6760000000000002
 15.5680000000000014  9.7300000000000004 13.6219999999999999
 17.5140000000000029  7.7840000000000007 13.6219999999999999
 15.5680000000000014  7.7840000000000007 15.5680000000000014
 15.5680000000000014  9.7300000000000004 17.5140000000000029
 17.5140000000000029  9.7300000000000004 15.5680000000000014
 15.5680000000000014  9.7300000000000004 21.4060000000000024
 17.5140000000000029  7.7840000000000007 21.4060000000000024
 15.5680000000000014 11.6760000000000002  0.0000000000000000
 17.5140000000000029 13.6219999999999999  0.0000000000000000
 15.5680000000000014 11.6760000000000002  3.8920000000000003
 15.5680000000000014 11.6760000000000002  7.7840000000000007
 17.5140000000000029 11.6760000000000002  9.7300000000000004
 17.5140000000000029 13.6219999999999999  7.7840000000000007
 15.5680000000000014 11.6760000000000002 11.6760000000000002
 15.5680000000000014 13.6219999999999999 13.6219999999999999
 17.5140000000000029 11.6760000000000002 13.6219999999999999
 17.5140000000000029 13.6219999999999999 11.6760000000000002
 15.5680000000000014 11.6760000000000002 15.5680000000000014
 15.5680000000000014 13.6219999999999999 17.5140000000000029
 17.5140000000000029 11.6760000000000002 17.5140000000000029
 17.5140000000000029 13.6219999999999999 15.5680000000000014
 15.5680000000000014 11.6760000000000002 19.4600000000000009