Mo Fe                                   
   1.00000000000000     
    22.9370226789958025   -0.0180715819925325   -0.0024642893719598
    -0.0181583654402943   23.3505269389580725    0.0081518562817685
    -0.0023980346163967    0.0084483762351144   22.6771692915475143
   Mo   Fe
   627   237
Direct
  0.0097206416184327  0.0016724609385800  0.0084631334326413
  0.0076166798156087  0.0820331405685020  0.0805328785615917
 -0.0134168784734760  0.0017342284013165  0.3267554620719831
 -0.0116616333520637  0.0745984578130624  0.4279706052138157
  0.0720029367872993  0.0700519189773579  0.3405404360045789
 -0.0098895192767183 -0.0103022647726647  0.5042387998722515
 -0.0052712286288979  0.0757585887164054  0.5803487061924700
  0.0874218889433510 -0.0057611867515878  0.5895442951359252
  0.0863015525069647  0.0753157839089753  0.5038481705929894
  0.0058673245555692  0.0123231079545165  0.8257096445870429
 -0.0059065908392103  0.0988125693228138  0.9252739613074635
  0.0731871018119119  0.0137440096614664  0.9189779383887802
  0.0782449641144946  0.0970872918075292  0.8235972960542913
 -0.0015097556076696  0.1743914623397593  0.0121701647578206
 -0.0002638752646335  0.2535933613294385  0.0915420789023573
  0.0962769367131582  0.2446050267368514  0.0128083793860794
  0.0071719268873390  0.1638306744587835  0.1582239559476718
  0.0117227481549059  0.2614783974682070  0.2426322582110627
  0.0700454026217020  0.1584569882284518  0.2492887649551273
  0.0901924577827758  0.2561301216000205  0.1577962168989756
  0.0020736012835387  0.1651972861785937  0.3359655501115837
  0.0774995745148862  0.1619978115515393  0.4315658319931433
  0.0793339583301024  0.2489380179801769  0.3401634832857961
 -0.0031629655514649  0.1664595967640958  0.5119690561344730
 -0.0009550419049267  0.2556689442285644  0.5916972116584365
  0.0937509751129452  0.1658022025614395  0.5851969913658718
  0.0872203951544808  0.2502963211836892  0.5060279769501266
 -0.0048229170623312  0.1609310406512292  0.6595287467334895
 -0.0008857031112382  0.2537873006506169  0.7339954812178520
  0.0904606473702067  0.1621392086177438  0.7296683674969473
  0.0896094778137135  0.2558311979391485  0.6656030234957876
 -0.0022416579981559  0.1712728018482256  0.8209225266626420
  0.0061009192714561  0.2430798321059920  0.9164901208620773
  0.0905268679724195  0.1686119336110432  0.9187480446309211
  0.0898147088122433  0.2417623413867154  0.8139509809447218
  0.0080809082587744  0.3210583445335471  0.0072445170396584
  0.0774520660484850  0.4137932393583397  0.0094148464624070
  0.0050907281912044  0.4102468449267896  0.2400364424783963
  0.0975371137884870  0.3461838997573978  0.2430351658886636
  0.0992822451628119  0.4168036966592109  0.1529784635013800
  0.0120738269662300  0.3414708907266342  0.3348368758211740
  0.0818761536177397  0.3368343751488738  0.4301274255515624
  0.0825870056630301  0.3359072245418778  0.5820121525702817
  0.0709341612714807  0.4178402326305041  0.5056281741972806
 -0.0020878350842898  0.3480882820866384  0.6671093174907016
  0.0102040751450260  0.4204149696432212  0.7578273069187211
  0.0157894523732304  0.4045267833119434  0.9145799298095839
  0.0928240570855299  0.3202048948861644  0.9135935293528081
  0.0048171989958259  0.5827487462707466  0.0762549461790760
  0.0892575881723649  0.5020760617339904  0.0801797750743234
 -0.0079628459526113  0.5767891329696813  0.2462578756183775
  0.0860225029227737  0.4883965921226010  0.2494247486049256
  0.0761052093380432  0.5846601131875862  0.1741361545773813
 -0.0078411233876026  0.4830414120674432  0.3299430502621117
 -0.0010798551913503  0.5780636934376051  0.4146226617186327
  0.0770684057943923  0.4895344676557092  0.4149070135107422
  0.0811552564200105  0.5768489489646432  0.3255052914914508
  0.0670074962986931  0.5802501282842272  0.5105101340994713
 -0.0034500172129276  0.4856889712850342  0.6611449854218626
 -0.0129734089645049  0.5688382148861867  0.7449080566428008
  0.0948710998967022  0.5002285879281710  0.7427467042020950
  0.0809578078135905  0.5764571682381225  0.6566607429368826
 -0.0072806942041784  0.5872998911037191  0.9267796609889404
  0.0699872617085673  0.5054773599006572  0.9224021122460306
  0.0669648211135393  0.5809217721876636  0.8281466552978416
  0.0048832230177116  0.6806593660787461  0.0106837980979106
  0.0886360541313816  0.7579955433543085  0.0015216144827038
 -0.0008295726252257  0.6738101252354790  0.1650358703215795
  0.0873093209160824  0.6649896106469019  0.2584476436556002
  0.0841034549259546  0.7424793343748113  0.1705306512671001
 -0.0089715418220650  0.6742366532281172  0.3211538831909173
  0.0701029100752002  0.6709108405288079  0.4054704531074760
  0.0905014876599577  0.7517681308886968  0.3329927917845398
  0.0026590606973290  0.6690485106186039  0.5049194046130877
  0.0019674029585564  0.7612268776055791  0.5902947351689166
  0.0751951360666956  0.6710099680913215  0.5961075802224317
  0.0749483102294866  0.7647656876570581  0.4967261889513994
 -0.0147144735950922  0.6590683090241413  0.6685789420140442
  0.0790873696401301  0.6607428170688521  0.7393703798387530
  0.0772771300897414  0.7520388655909932  0.6699154561346143
  0.0024281364396445  0.6767685848928936  0.8264629216423327
  0.0711477671003848  0.6699648756435559  0.9152821227456267
 -0.0047313547732122  0.8234188810138331  0.0006975030390257
  0.0742844005933942  0.9073424071835097  0.0038514193834948
  0.0133136609281374  0.8330955971358672  0.1721081059012717
  0.0060254121058042  0.9212948016060630  0.2526705022035295
  0.0974701308341323  0.8358954368728228  0.2591942689714506
 -0.0032951190080715  0.8333057422916543  0.3255748919205543
 -0.0049831842166345  0.9231085967389659  0.4118475835969551
  0.0853443302837719  0.8394859264522458  0.4064852875976220
  0.0883342426340456  0.9306579059061938  0.3320528865257313
  0.0018831591862580  0.8516359614731441  0.4987536251559869
 -0.0015684713754698  0.9199466885584986  0.5962994024253356
  0.0933745727413731  0.9149690222434028  0.5038271735686464
  0.0085738388636206  0.9242401588018410  0.7354726889960839
  0.0799207128331205  0.8323864798943176  0.7430304657854719
  0.0017171248996503  0.8222178298889709  0.8324156766673333
  0.0003585948117354  0.9144563949623061  0.9157252458783784
  0.0722833959641252  0.9190498726769011  0.8301233007901462
  0.1494092733691521  0.0017928803854032  0.0068063070561072
  0.1509036446259606  0.0872570707031613  0.0820135389978080
  0.2485574486338264  0.0074608357908908  0.0868426402942548
  0.2368349904257404  0.0779471894756989 -0.0023226699278563
  0.1590888517254179  0.0077281693148622  0.1585077002765102
  0.1613075875491972  0.0795084872342463  0.2457258711044194
  0.2572595011314603  0.0087822557019685  0.2396727698831584
  0.1692395054555256  0.0136807546249400  0.3334858113853047
  0.2450601216177057  0.0028189493499372  0.4155404766656937
  0.2538251783256771  0.0932256387370936  0.3381512937992879
  0.1758775903332373 -0.0027315220029563  0.5045154633528610
  0.1784282537627556  0.0745255287581189  0.5849668605234976
  0.2425292445933605 -0.0079123668297762  0.7580009230005130
  0.2545872913039756  0.0724217107800232  0.6664697559527948
  0.1495663950653563  0.0119716558674857  0.8302336833713154
  0.2352814149972861 -0.0046822885908626  0.9136405834310759
  0.1839131585818174  0.2381232626786354  0.0927337819545674
  0.1617936088511430  0.1564263634093137  0.1670388542469715
  0.1552773983437844  0.2437175330891198  0.2444728048110366
  0.2505110293301714  0.1566081307763647  0.2500599449404771
  0.2603311968451660  0.2467831242310740  0.1782465092441481
  0.1478375625643460  0.1535768791000614  0.3376277771657451
  0.2384271656973865  0.1671747072834174  0.4219314864410074
  0.2358577775539650  0.2407205537343137  0.3279764692460072
  0.2448182723115860  0.1690379142434154  0.5735792319524040
  0.2332398896895063  0.2570185683361100  0.4951008075895014
  0.1798175397335928  0.1667731011040955  0.6640759806810531
  0.2514379789000836  0.1626366332296622  0.7507807535695454
  0.2575400093459534  0.2581649423958620  0.6644172504548538
  0.1725083201134205  0.1572519124273582  0.8285788459450830
  0.2407748758359194  0.2514881195567668  0.8344856904495914
  0.1736638584126365  0.3260188661641461  0.0075866970268645
  0.1821836517700363  0.4190528187148201  0.0738668665466760
  0.2604180709301885  0.3293265074070754  0.0881394961939484
  0.2577106196502324  0.4218671934113008 -0.0102916552424529
  0.2394423139047204  0.3336517161148634  0.2606198480355550
  0.2429004223585838  0.4222215279244783  0.1767129277936724
  0.1517551760300741  0.3361174833395121  0.3373974388549104
  0.2384279549432108  0.3275787878357502  0.4044727687927900
  0.2400842358491628  0.4255399783716390  0.3435111470580471
  0.1681283873188573  0.4095962923707132  0.5772955446748923
  0.2460410427285343  0.4082194533326204  0.4905149254814011
  0.1721742097510056  0.3427330355428223  0.6710866317012557
  0.2570223933320314  0.3432607242863737  0.7568955127143357
  0.2597859516204580  0.4152240780977278  0.6560761046230108
  0.1587790197163297  0.3355876289059472  0.8235711414874671
  0.1542206298733261  0.4174289685767501  0.9269280662174434
  0.2418110958604778  0.3324952922627607  0.9138291711780887
  0.2463605134656894  0.4202771400616062  0.8432653725687099
  0.1627301860156621  0.5133500613513847 -0.0088792644975006
  0.1583630177910972  0.5973188742819303  0.0841733473430926
  0.2416648325226444  0.5181288924109230  0.0770714688825554
  0.2504400843599844  0.5993149729314098 -0.0097725792679988
  0.1729632900750845  0.5084019832283415  0.1717609582477567
  0.1474260052442629  0.5844088870093301  0.4289508899644049
  0.2408479360045802  0.5033710630335096  0.4280707701107744
  0.2322083158656746  0.5806919071952036  0.3499570175147332
  0.1573113417532226  0.4968121855020936  0.5099411101106812
  0.1646337711097148  0.5879158884829023  0.5793553991528779
  0.2443175613613771  0.5979414515079430  0.5019080474434209
  0.1762300156149379  0.4920698584445689  0.6509406007782739
  0.1734584788875741  0.5833400425826079  0.7431168890276016
  0.2390997729142967  0.4930414332765486  0.7554808659603655
  0.2528941191686593  0.5849264753074560  0.6521398717344178
  0.1554535203682141  0.5032242684089958  0.8416924441624953
  0.2511317511809432  0.5116569884071742  0.9136259443063418
  0.1547326561417217  0.6624674670128197 -0.0101276760555850
  0.1642578238523883  0.7374011505649019  0.0855973527481742
  0.2421009799342514  0.7418096381133591 -0.0042253842955436
  0.1746329857428687  0.7470346889865749  0.2489799533800154
  0.2367754145808268  0.6530741984559331  0.2530354570546218
  0.2454049653958952  0.7371268269555801  0.1637568166734795
  0.2376657043921429  0.7433942229087772  0.3408314728696344
  0.1469302794248776  0.6799524923918496  0.5002322380132840
  0.1600152463549021  0.7581500693209718  0.5913484339691983
  0.2523787217744644  0.6849446128171247  0.5856480392947288
  0.2454983746360385  0.7509098798598127  0.4957000306878854
  0.1624039078172860  0.7485913138768977  0.7442328416620227
  0.2519375073423045  0.6658886802579299  0.7526935208551175
  0.2583132454299106  0.7533494378592761  0.6768923499583104
  0.1521230982476670  0.6637202229805199  0.8313252487394664
  0.2419045353756193  0.6655620424014409  0.8982872848441976
  0.2410976957069497  0.7569334891963095  0.8280029478968053
  0.1696990875884934  0.8316905559407857 -0.0023293324070046
  0.1579112694186570  0.9171134882782197  0.0844346511445153
  0.2525142620235730  0.8263824128339667  0.0890143566948901
  0.2505394417717164  0.9144716294539952  0.0020610617636824
  0.1542311221450421  0.8329624764500548  0.1542263772292770
  0.1670063253798084  0.9299519447655706  0.2392173110786335
  0.2402464949279456  0.8369111689854818  0.2376044196644302
  0.2485061091102138  0.9189506114295444  0.1513892186847591
  0.1831001638402854  0.8402000203403827  0.3373782166426678
  0.1737450081294226  0.9183214297217533  0.4135170521399906
  0.2440515012891018  0.8285129412249586  0.5939805298719935
  0.2350365285613415  0.9023514808000825  0.5050608304582946
  0.1518408129907833  0.9226034391731569  0.7479024631054106
  0.2432636598979000  0.8434474423384927  0.7524321412530528
  0.1515667419598959  0.8319689903979178  0.8381228386872367
  0.1496213225583554  0.9167730740273174  0.9189960501691870
  0.2424548514790707  0.9142499693433345  0.8410720957731628
  0.3314549697204386 -0.0009274203733007  0.0060702539639877
  0.4166199811025625  0.0725068962519805 -0.0096343199687910
  0.3416611533571483  0.0052792101856452  0.1547062290392305
  0.3418193298269748  0.0859694133845598  0.2469648998105440
  0.4041030579615876 -0.0101275042664054  0.2494764125770817
  0.3309150831027322 -0.0053589681640086  0.3364916566462390
  0.3323312681475095  0.0807725592562840  0.4299737452393397
  0.4055761399387542  0.0853765297611449  0.3422049730651957
  0.3168410260733762 -0.0133018658927160  0.5011251314452790
  0.3200089641056698  0.0753686413232782  0.5723860928602937
  0.4157069555444140 -0.0057288966872734  0.5872493348731972
  0.4177787147638499  0.0719790271208613  0.5019934272053038
  0.3258953962924385 -0.0122767664781958  0.6669550143923121
  0.3228365791706486  0.0781965193773966  0.7592922878464884
  0.4165763407533434  0.0148242790621034  0.7442367925283682
  0.4082246671963239  0.0906228980459109  0.6570852604722441
  0.3231931632935504  0.0688937540218341  0.9112110438788417
  0.4191632442803733  0.0734465112285660  0.8455559354977107
  0.3227921776225663  0.1536807845396595 -0.0101737967330715
  0.3222017254451409  0.2343115136069428  0.0675989471903621
  0.4185391974843692  0.1614058747175819  0.0674399801244849
  0.3346999177972145  0.1561351533777420  0.1570817787887757
  0.3370605827733462  0.2465314530746419  0.2586978937192635
  0.3959299524579040  0.2531156497861693  0.1595987335385710
  0.3327758289677153  0.2467024496755938  0.4031986884067091
  0.4149959261855626  0.1705379484203063  0.4236534163077737
  0.3284032421447619  0.1709583714584945  0.4973039251196556
  0.3330416781634125  0.2509012182657411  0.5756455367437433
  0.4172481845667830  0.1641206110560977  0.5698814951852492
  0.3294013854147744  0.2453071875267852  0.7582468785451201
  0.4067628236481357  0.1522538745981009  0.7587590873201225
  0.4036211844169135  0.2319758633796828  0.6715607984223818
  0.3188258713922313  0.1598498670744106  0.8507688584425431
  0.3234746428292910  0.2467548126838264  0.9225307518336980
  0.4173496534574551  0.1614685441254192  0.9210875375610478
  0.4099032660407560  0.2444983053909830  0.8454024526177270
  0.3284118439734962  0.3309287025624594 -0.0010542420819279
  0.3158969713490986  0.4312907359228965  0.0876280851386727
  0.3962299576913831  0.3393548548995790  0.0913900405550383
  0.3994656639060652  0.4274101955090616  0.0118141721237072
  0.3270659205313958  0.4328743460633556  0.2636644060078271
  0.4161087880915158  0.3478390537036827  0.2389270653207032
  0.4102698903358234  0.4357137711900492  0.1600922152580576
  0.3362336501762900  0.3358571944940343  0.3308557100491929
  0.3354419671297746  0.4151043100829171  0.4138478692253993
  0.4280009324539918  0.4233084771640286  0.3430237047867554
  0.3363717848708186  0.3242413298220097  0.4865883262146052
  0.3397838892314165  0.4131535316863859  0.5607648410241032
  0.4161495520074600  0.3273920157106501  0.5803312135017683
  0.4292558191905759  0.4131825336484108  0.4831969318113027
  0.3383269718885042  0.3346310311366219  0.6637302527609350
  0.3344155075732007  0.4287202146320800  0.7529262753866228
  0.4001442530627021  0.3325681964007297  0.7622410463983180
  0.4077128327313699  0.4271554388113321  0.6625091655208264
  0.4091631593094103  0.3396706413436649  0.9195828555674832
  0.4066573231765107  0.4295418809196219  0.8409899887340444
  0.3331229108348940  0.5944931643304194  0.0874607610734721
  0.4106773340605572  0.5906654257125376 -0.0081105817960107
  0.3198980590123774  0.5145222977413674  0.1717148258006705
  0.3255332494374646  0.5738192608231311  0.2645424430728750
  0.4115542400509314  0.5019012322870653  0.2633134468564840
  0.3317439488542152  0.5988505348960949  0.4201156161673245
  0.4248456068828863  0.5118654175283313  0.4195316417630001
  0.3368674294730791  0.5050982921614167  0.4932181375514320
  0.3349301630420168  0.5904269418556635  0.5669810689479489
  0.4300429795750138  0.5035603913485512  0.5660884913888694
  0.4284687048290682  0.6019143781703279  0.5028855220072623
  0.3260314762984375  0.5019150768351082  0.6513688134937632
  0.3231145920983413  0.5704872061328985  0.7524688402843701
  0.4110147676403950  0.5714830054753840  0.6599624796654648
  0.4091221668226546  0.5022898806845925  0.9255011448398320
  0.4232453302893612  0.5702424877346524  0.8373633677986880
  0.3311026852035537  0.6750055044901899 -0.0087368315819815
  0.3310501318882695  0.7332596807905910  0.0962889026141626
  0.4199623751735687  0.6652294088306391  0.0990195486997094
  0.4170125537433035  0.7404845588550704  0.0025587793789617
  0.3228975744741927  0.7505555081907789  0.2492889236345576
  0.4163643924818436  0.6582095592239436  0.2488841029718615
  0.4202790515212013  0.7456652156350556  0.1808187254583371
  0.3272002509151735  0.6650575026657018  0.3305355668983604
  0.3324055585016505  0.7441241068314323  0.4134136418004503
  0.4271913610349034  0.6669284805023384  0.4081481284104284
  0.4205951251077617  0.7498133792009346  0.3240316105206242
  0.3464125173097002  0.7623812091222995  0.5790601984633188
  0.4274317404757152  0.7442636804856969  0.4976994200385517
  0.3425568517379283  0.6668831530111740  0.6669159014566433
  0.4119844508284623  0.6587345384639078  0.7569501973020955
  0.4067055484682442  0.7579325994577754  0.6771771973160396
  0.3339845603449602  0.6611704897489141  0.8342050296122571
  0.3303470483778717  0.7543529540843430  0.9031428559268286
  0.4268803395979459  0.6682103191308184  0.9055490504690813
  0.4273806166186371  0.7527462982599075  0.8236710952056646
  0.3292195908843831  0.8201782381541500  0.0020078992238987
  0.3438959684148804  0.9116778884334235  0.0909478875080644
  0.4202840136492496  0.8172469240703688  0.0968982120024698
  0.4123208750165556  0.9140783807613964  0.0029317141613831
  0.3248423768700089  0.9101306220492182  0.2421498793950132
  0.4170355594142450  0.8397725778918486  0.2476120290689950
  0.3207041395565788  0.8337023336318871  0.3338369675589830
  0.3217767767574054  0.9103008044210272  0.4108970110794755
  0.4222704711606410  0.8341700726019365  0.4070393832127958
  0.3364064807450118  0.8355238778370018  0.4921970709915819
  0.3285101967457109  0.9060239843796850  0.5865364690074062
  0.4291007969273841  0.8449623195231726  0.5885492655568586
  0.4157895607226333  0.9247076011720512  0.4929536589186356
  0.3340896274132778  0.8464373981036069  0.6823521262808451
  0.4226128818137221  0.9224072406282975  0.6817084101710139
  0.3395861504469809  0.8402654717249891  0.8288916347625861
  0.3358423970632605  0.9179152863139435  0.9167852855904564
  0.4197430436356479  0.8281588023809964  0.9156436965819189
  0.4208289616720562  0.9324139531000494  0.8244621677847632
  0.4991337227063334 -0.0013112318221578 -0.0022107478631075
  0.5026188523269398  0.0783423878193304  0.0823316702082784
  0.5892760763724305 -0.0071395100015196  0.0902021767929413
  0.5952930348281966  0.0744797468295330  0.0039851034096484
  0.4844250157319437  0.0002107109121158  0.1691536565940040
  0.4835025855041784  0.0787094827942207  0.2518737255231220
  0.5820856727800079  0.0033532875534586  0.2593841552311725
  0.5887667898991532  0.0704910822755608  0.1707639488482060
  0.4861811970843363 -0.0027491286299155  0.3365354821616492
  0.4987499662852431  0.0830151554397960  0.4169806382105383
  0.5885198043760986 -0.0127274904073935  0.4052851752892314
  0.5844253767091419  0.0842959354777591  0.3386791845178868
  0.5095145212416168 -0.0147867153063727  0.4863296928594827
  0.5155078963661045  0.0766749342546626  0.5694345493269684
  0.6025426585718145 -0.0035814465896427  0.5804400211620340
  0.5924360947554782  0.0819445011715051  0.4791177121119132
  0.5091245382379578  0.0182633627535874  0.6701880414565625
  0.5085454147722940  0.0960380067221848  0.7526889601045089
  0.5897766855649089  0.0051870587431847  0.7445478631299208
  0.5121160881886763  0.0028965938702207  0.8366558604598119
  0.5936852895076234  0.0793361860540589  0.8467968333065298
  0.5079813603708911  0.1655583378639922 -0.0044058239497329
  0.4892385374318006  0.2463624914712189  0.0953846846274143
  0.5821356351115241  0.2508074969019282  0.0205556094974921
  0.4919695290962559  0.1567722279533867  0.1676841118223057
  0.4822116446022766  0.2487242712801699  0.2341040418440249
  0.5840093392767652  0.1580429157133122  0.2413572950336038
  0.5808721919548869  0.2504402474078524  0.1708234847881633
  0.4935623189702847  0.1650678254455875  0.3236017095445755
  0.4978762042195308  0.2433955501279454  0.4016777078685749
  0.5808680293953145  0.2481886800069042  0.3087713088966824
  0.5102582005670082  0.1739679377499920  0.4941855160148391
  0.4971491443362622  0.2518777068055872  0.5852127807878450
  0.5872572742976139  0.1771191876547686  0.5775256351453876
  0.5869380377660763  0.2631325972321403  0.4875225975161744
  0.5070520763937897  0.1592616516803905  0.6625478358003497
  0.4906996435327389  0.2370884292602867  0.7621953257040870
  0.5805638254694195  0.2561266452681725  0.6807054857560049
  0.5091898819306374  0.1582895864154942  0.8486956584434338
  0.5031943562446286  0.2589643281035011  0.9162773499833389
  0.5965180100217249  0.1671670232076929  0.9293633865279971
  0.5854421630571465  0.2491746803862200  0.8240595474618244
  0.4902923758283547  0.3310408423454937  0.0208330298362230
  0.4937271435842293  0.4303812086586053  0.0793964356812405
  0.5812994274403578  0.3384673806966733  0.1012475076426556
  0.5904656318720751  0.4150695135681517  0.0170214380398469
  0.5720329191332786  0.3428761361439599  0.2410661369369963
  0.5816626434876436  0.4323316312041152  0.1594197815850929
  0.4854603916330124  0.3308252501558309  0.3241731434119299
  0.5839073624500923  0.3297821798558011  0.3923101197366739
  0.5755451016801476  0.4210785215858617  0.3285268612816076
  0.4941800219685463  0.3220847717099254  0.4863276045787923
  0.4943095747070031  0.4071345843946418  0.5854137725369644
  0.5856051190687552  0.3265361037909496  0.5854224041509345
  0.5786940264324096  0.3985101930186505  0.4936989123586959
  0.4822039793575424  0.3239933993845672  0.6837464569290211
  0.4891475664216663  0.4224579129450313  0.7460843018824500
  0.5857505731942841  0.3379653762066236  0.7573941055744633
  0.5865278314356144  0.4040023417115661  0.6668946311329442
  0.4941075876998715  0.3409418463755916  0.8294673534758827
  0.4947186752541195  0.4086670554886205  0.9347284578028847
  0.5799543802039003  0.3358481530320369  0.9196328225714714
  0.4987408574004966  0.5837761330961858  0.0782816888371447
  0.5936252453638041  0.5134520736876835  0.0738169913819989
  0.5915063125449984  0.5864601036517759 -0.0104151389962706
  0.4955264697993721  0.5122904587081429  0.1612708470939274
  0.4974652519885289  0.5700745890836268  0.2582432279841692
  0.5854652667910297  0.5018180859117582  0.2525566971100194
  0.5951331238956657  0.5756725653146639  0.1708185535300635
  0.5855091704523196  0.5767225760592882  0.3426007222924599
  0.5152535385655429  0.5007139492875676  0.4911457025793178
  0.5127802508441787  0.5884501325490016  0.5893685537964783
  0.5806992786737373  0.4883948712093409  0.5875520347791860
  0.5827559480231163  0.5853913939555416  0.4878024851439496
  0.5018031903773426  0.5662014560297254  0.7439039313664233
  0.5894065720666112  0.4824446158395566  0.7437177032019506
  0.5900603273083234  0.5758409910260480  0.6745207379817698
  0.5057854614995475  0.4869735367834250  0.8418073448575785
  0.5864934536686086  0.4885208105805772  0.9306503961219453
  0.5763521500865038  0.5790633344212137  0.8393268343090665
  0.5049608168005684  0.6721027218981134  0.0046413446204147
  0.5952378970763027  0.6611857514322382  0.0847167387964350
  0.5112215717983123  0.6567645289020246  0.1775101373944737
  0.5793490013952355  0.7496790831782246  0.1776023368624297
  0.5115785645136850  0.6614400946107950  0.3202134315479191
  0.5053442338223127  0.7513472672890531  0.4098449864954012
  0.5742077692189863  0.7572790078676183  0.3227420921275843
  0.4953840496459883  0.7495773906364650  0.5946394300660978
  0.5869513577257388  0.6689824953495558  0.5897132656457751
  0.5681166223400166  0.7551295276484903  0.5021081665799310
  0.4916787565759888  0.6627489785483217  0.6778785969328860
  0.4991761334962414  0.7584635817605345  0.7378290971205278
  0.5883808773053862  0.6693239517237831  0.7465039052611345
  0.5883675464241832  0.7598801437972512  0.6744478268437504
  0.5091280300589904  0.6649241542323492  0.8251395231647949
  0.5786210267619208  0.6767358961914045  0.9192743788273293
  0.5786364784582143  0.7636110210175576  0.8274694155981228
  0.4932718737264609  0.8244965101936592  0.0066540361345129
  0.4883100693493572  0.9189649575791096  0.0888795750366235
  0.5753595336632261  0.8364584465895998  0.0851282006441612
  0.5827082526696643  0.9198428943077291  0.0058424230399038
  0.5789779954661273  0.9232564240089041  0.1770412656076966
  0.5680594572608350  0.8489183657618855  0.4162406331730727
  0.5750696055545520  0.9117814629823275  0.3224996926225914
  0.4979863765899132  0.8465225256770053  0.5007861683987909
  0.5079306574790065  0.9328995007002963  0.5909310594752571
  0.5767287588176834  0.8426607926400561  0.5923831283510042
  0.5917702498091503  0.9188571016396361  0.6776472339051861
  0.5000725809420987  0.8439384236006499  0.8254105311589648
  0.4972113183456472  0.9183490597794827  0.9184706064114260
  0.5775752015083701  0.8287464683309945  0.9255993881828682
  0.5866366858316139  0.9132517021580265  0.8306739517893548
  0.6766122529945415  0.0761628114353046  0.0934471311434395
  0.7430650341430692  0.0745905318276451  0.0007566791056754
  0.6857315807323553  0.0735176673801394  0.2581983265124062
  0.7636218301577111 -0.0070136977634829  0.2439315606802930
  0.6833062444232741 -0.0094323915598877  0.3426831024635548
  0.6769832610081613  0.0863556731976297  0.4044417021656725
  0.7668817977055000 -0.0053838578050434  0.4298666949868146
  0.7725587106768560  0.0857087851472428  0.3335086933847987
  0.6578679891578301  0.0907863659670593  0.5699113708164580
  0.7438918852751583  0.0037825530937311  0.5663368086897207
  0.7527036565733611  0.0902383975013073  0.4961503850063703
  0.6798494906762146  0.0013049943566426  0.6647952800053490
  0.6673212201022976  0.0862415000925243  0.7503232897272167
  0.7406112487280776  0.0970267255645231  0.6518781187137005
  0.6638463588050381 -0.0041993054792713  0.8375889019363952
  0.7525375266279188 -0.0118429575547344  0.9278541583226432
  0.7479486384918681  0.0727853589901881  0.8471132247254202
  0.6713687277876423  0.1697552636516164  0.0131717944021820
  0.6735422722602903  0.2480100696652682  0.1058829279212102
  0.7607465508389700  0.1667902996568472  0.0940265801462619
  0.7525020408330131  0.2604015462941120  0.0078965796309204
  0.6783112178989023  0.1609405174929004  0.1772593728167616
  0.6767218366321782  0.2522008679538592  0.2463770967527676
  0.6763458783513301  0.1678459661345670  0.3219262245102087
  0.6762361897904517  0.2571082139278451  0.3939793450958492
  0.7652814737639566  0.1755945677555815  0.4156470890757189
  0.7637731525123765  0.2562617805374657  0.3238438198490912
  0.6628278247128867  0.1829329093041792  0.4838999852232633
  0.7518169092138948  0.1786697432494651  0.5676232687591867
  0.6591679431870322  0.1802670428009657  0.6666182416238597
  0.7489073467319566  0.1610225414154560  0.7586861647772420
  0.7571747602437181  0.2376554388030176  0.6710006889373048
  0.6673666189409247  0.1674265180700971  0.8394425122298504
  0.6612118889116754  0.2615423937931618  0.9176441133521088
  0.7457385309889645  0.1704245736040252  0.9212023240639435
  0.6650407674160506  0.3267101248001896  0.0165571921530077
  0.7428105193057554  0.4046980949127652  0.0047293881628508
  0.6739661450890346  0.3410447703626941  0.1731198040857613
  0.6727505398790867  0.4245918837507005  0.2553191681332626
  0.7559911642503558  0.4171021647794890  0.1697549457843633
  0.6708569473300535  0.4031452853046391  0.4028061656618307
  0.7609601205274299  0.4127425487154432  0.3240837178531343
  0.6789728703691397  0.3267826060143594  0.4903384225775155
  0.6779287633483401  0.4123268177892999  0.5786177566119616
  0.7520890655678836  0.3216683039307719  0.5823412180570778
  0.6801952769650080  0.3213870786448951  0.6731024885990614
  0.6792744775202251  0.4105975495844684  0.7609323933663601
  0.7553463695377471  0.4129910691097919  0.6716269669829823
  0.6666858585592352  0.4022228714694129  0.9124627342538311
  0.7513330379083554  0.3227954122046203  0.9140213859285740
  0.6809470184063120  0.5007269077742025 -0.0021194854858248
  0.7514994755314915  0.5871818139425481 -0.0089549857834318
  0.6836296484902233  0.5072423616937201  0.1665472428147942
  0.6746957135956574  0.5039227191294867  0.3395752664193797
  0.7538964094722179  0.4944824616572193  0.4215663181368184
  0.7630805374582088  0.5813347568043302  0.3400667182523842
  0.6577494971750492  0.4891977495001681  0.4881029398212052
  0.6576208493602876  0.5795401991233170  0.5779639018356021
  0.7473630352196746  0.5043122772915279  0.5695488802395688
  0.7460565407360069  0.5869621464975439  0.4841664115730436
  0.6828264680904372  0.4957874693094258  0.6689318047647004
  0.6710444308494117  0.5818692673350511  0.7622970713784191
  0.7589643593044820  0.4985466630168528  0.7678033977150971
  0.7552049497709785  0.5892591440711231  0.6708805579017020