Mo Ni Cu                                
   1.00000000000000     
    24.1886728718174808   -0.0058804862833511   -0.0851753416969990
    -0.0061984729303720   20.9936316633760320    0.1119271548687710
    -0.0844213029298260    0.1173096656598936   23.4282695674650547
   Mo   Ni   Cu
   548   158   158
Direct
  0.0055446896143087  0.9985186587830154  0.0056452505173296
 -0.0019002619852657  0.0784914375733961  0.0872683520509213
  0.0846420039361786  0.0795743100600095 -0.0055638307574994
  0.0074474057055429  0.0089121449021099  0.1798916029333637
  0.9965310879463237  0.0875390573636826  0.2636686932990286
  0.0945254022389948  0.0223383806931857  0.2683591085502658
  0.0022684883967289  0.0132594980275763  0.3622093059429094
  0.9889692941046657  0.0944890504573833  0.4381268177588639
  0.0895008990356562  0.0011447102472283  0.4286366906853752
  0.0824977284874291  0.1042179989115664  0.3544249918541645
  0.0013222566488632  0.9875504527191875  0.4960013972980077
  0.9962685734794638  0.0831973804061735  0.5646942248077940
  0.0915448581301032  0.9890577616263878  0.5686691815344064
  0.0858810598582334  0.0918599684718255  0.5014552648954350
  0.0028668954710517  0.0671521046063565  0.7328064954292072
  0.0889563181601772  0.9922362962058053  0.7242239760008012
  0.0857987001964683  0.0813448859227635  0.6407321811916444
  0.0022391976321384  0.9918842418606446  0.8203892627675109
  0.0908408326074109  0.9993794261855820  0.9083356007608940
 -0.0038163241635397  0.1524784261002737  0.9890899330297103
 -0.0123670473418738  0.2315695099556233  0.0778951510766738
  0.0806128887146760  0.1600164859681071  0.0808116929543056
  0.9855137610981639  0.2350369304612454  0.2505601020359381
  0.0787581865017890  0.1688326354047269  0.2550811338161171
  0.0751381346308317  0.2416876068117164  0.1635281350724094
  0.9852021885439881  0.1705156617371461  0.3464232277103103
  0.0738590507804187  0.1905651324227327  0.4356451381871954
  0.0701201475736322  0.2501032430669690  0.3416669808713417
  0.9854897249031985  0.2678012849640292  0.5924884413413414
  0.0784527730725476  0.1780704096833522  0.5765110749971160
  0.0660843207824102  0.2773534815445107  0.5153751806078734
  0.9948551934133628  0.1568361863249393  0.6588801723720414
  0.9919627574996450  0.2293588015962567  0.7521517098677297
  0.0713116894117339  0.2540567887412060  0.6697331073393169
  0.0045005112258093  0.1369709247289902  0.8250043521649774
  0.9961639943790278  0.2329977178385891  0.9037015377000377
  0.0839484577272705  0.1476853751431012  0.9005425064926894
  0.9938701436840666  0.3074523314589135  0.9896118094380248
  0.9998812087438623  0.3917273074545955  0.0626339236467391
  0.0716130004965034  0.3211461866596050  0.2485619916570186
  0.0719696956763425  0.4033912311025948  0.1577281161214616
  0.9833559313074015  0.3551767229698203  0.5000524678152337
  0.0735982601518846  0.4198078420557677  0.4996772986740025
  0.9946658420013065  0.4252989099201376  0.7698930957538184
  0.0713525818789938  0.3265305116848615  0.7604459367478636
  0.0752764838673945  0.4228156834934670  0.6932564277130726
  0.9950526462804135  0.3959261738130223  0.9133857939518055
  0.0821106141045082  0.3101485105650397  0.9031130758850235
  0.0802800572366704  0.4109057061895959  0.8375904017143849
  0.9953796032315820  0.4973377183343222  0.9862106667856643
  0.0751692577824588  0.4890387755530288  0.0615969944839189
  0.0853311486848475  0.5992435967104386  0.0026143134642884
  0.9978606751666913  0.4960191644692938  0.1530281733862855
  0.0072824940961716  0.5857735417582152  0.2426453533518647
  0.0860235661670161  0.5631929092605774  0.1562346239401874
  0.0069456158756981  0.4922879632106839  0.3245986160053568
  0.9987385238052280  0.5819827544892732  0.4119988272640868
  0.0756896705222949  0.4992466845415904  0.4093751933173676
  0.0904924488680900  0.5815032427171158  0.3173761157674575
 -0.0035941175700169  0.4953992509562163  0.5058147287171915
  0.0789392069421159  0.4997919967676744  0.5947935945706254
  0.0865101303517984  0.5763661690753721  0.5042946211330738
  0.0035628614992441  0.5196070825343119  0.8516897192490676
  0.0046583184443408  0.6102274419567660  0.9299183925019503
  0.0792194773880086  0.4980027344989558  0.9251769270971282
  0.0013685008453738  0.6963073090945296  0.0154360476764877
  0.0073737380565227  0.7721616629675320  0.1017958676409662
  0.0958200507808016  0.6822055881082326  0.0863473385563913
  0.0989904701805346  0.7697132076177187  0.0054352623944170
  0.0106410041573053  0.6662163470422210  0.1564064818144542
  0.0114282082188182  0.7418404577552603  0.2432692125905660
  0.0070961472738075  0.7410380948578120  0.4154542898891059
  0.0887074422921948  0.6540085268010661  0.4133670925625940
  0.0926703377564173  0.7310894391608845  0.3232796844401558
  0.0058446738358017  0.6525124721132147  0.5049211153018661
  0.0134707080927763  0.6731158211895808  0.6685454494289078
  0.0874141739767595  0.6805145994528866  0.7549604575374906
  0.0932843796709760  0.7576864725848247  0.6528807931545895
  0.0073532999242006  0.6895443692665210  0.8399560917531722
  0.0030204751747623  0.7702681998460270  0.9210447408317705
  0.0919925900691556  0.7722378905305152  0.8346114050795779
  0.0095553693823160  0.8452038532003868  0.0117542389211759
  0.0094891679586056  0.9247945552023529  0.0981399259685240
  0.0935406828360832  0.9248359491208228  0.0094463312013615
  0.0095789343900125  0.8522539717460296  0.1889116096795805
  0.0115774386271215  0.9365466800778951  0.2764196139429639
  0.0978643883733912  0.9382802474849069  0.1840757157079096
  0.0158987838982562  0.8226566901884440  0.3261855043181986
  0.0070623682423997  0.8947865691485217  0.4121566938655033
  0.0926148135461231  0.8126812729902619  0.4230487537721557
  0.1023883846587729  0.9202616071453211  0.3450975502276838
  0.0903559859097949  0.8275377014945339  0.5699706558868263
  0.0033188538763079  0.8285286664286597  0.6522247502690829
  0.0004711185965412  0.9161856265976159  0.7303248410855935
  0.0008490910384519  0.8447915187482005  0.8282319147500957
  0.0029849467018599  0.9224411688588966  0.9162414890304202
  0.0918662369264851  0.8501823127500255  0.9177703019971747
  0.0888787815842797  0.9213283751815844  0.8210240921137532
  0.1727897951046520  0.0086545048913456  0.0061832299980376
  0.1699384595131870  0.0892484763203524  0.0930060272801078
  0.2566749603053686  0.0841346775123507 -0.0006878770458938
  0.1741169440844454  0.1050928348244004  0.2559647362312785
  0.1765995336680319  0.0199473709475694  0.3491085105433456
  0.1737062927685945  0.1075940454662026  0.4357044234953243
  0.2588730979790572  0.0083586097766239  0.4231431781431810
  0.2622800301971673  0.1029719921784305  0.3463106668866947
  0.1758599825783556  0.9952292609719424  0.4923138667979535
  0.2535024103504724 -0.0008259567480241  0.5730843220864245
  0.1725469078382052  0.0747125412025982  0.7351520358554724
  0.2532690422923254 -0.0014530228764778  0.7328828471328287
  0.1713082233749316  0.0767674845505852  0.9009214695117066
  0.2585261151633445  0.0075302655641587  0.9109578382415198
  0.1707647849546539  0.1560366204096074 -0.0103945411649236
  0.1641151162528950  0.2414455686068275  0.0706732311406338
  0.2518535505819471  0.2357257430389025 -0.0149977122997751
  0.1710141558464233  0.1776652026404117  0.1651450942708526
  0.1632785767608173  0.2548230387279067  0.2539524874045447
  0.2535016841681195  0.1862976401323607  0.2554774687044588
  0.2534796259347150  0.2561065558453825  0.1580070103986127
  0.1678741983461359  0.1770563017451619  0.3464651057722544
  0.1627402851852966  0.2636773320863250  0.4259525092027210
  0.1722983201054787  0.1955853664127432  0.5165392015115494
  0.1608768957871997  0.2729531682525211  0.6032183502121168
  0.2562958349359847  0.1868494936646228  0.5946725022037966
  0.2557425064986809  0.2738691831718398  0.5137665963254643
  0.1687191659733047  0.1629983282897019  0.6575830805942779
  0.1557466858080718  0.2406276090430620  0.7406309331156665
  0.2584100319333102  0.1565468546291944  0.7367129255093047
  0.2553453627572951  0.2579957729728571  0.6807855826526447
  0.2475349393132274  0.2326325410735523  0.8174057617543008
  0.1582957337859902  0.3955648277021382  0.0668282170874114
  0.2478492374377263  0.3241244279220374  0.0659267202025374
  0.2501509251041676  0.3994842461198138  0.9819024528878884
  0.1595815566575957  0.3226936573501337  0.1583812682163992
  0.2483311044976628  0.3433144821676111  0.4227772470540932
  0.2434932325830233  0.4029687803381104  0.3225614493120421
  0.1586913439214891  0.3432528293851712  0.5101202620200729
  0.1600824876671683  0.4232203583042546  0.5962233066950821
  0.2517580905378946  0.3444554088658188  0.6009427163843757
  0.2478533021684545  0.4182559709701647  0.5058975671077843
  0.1626291174102919  0.3514176203299276  0.6871159174517979
  0.2506849371452955  0.3387273599191706  0.7654876670845474
  0.2506095516544011  0.4293962590149161  0.6868097699523179
  0.2476115040289374  0.3173761549504252  0.9026067731289971
  0.2466227785478325  0.4208739492907434  0.8466655224371483
  0.1623652598415444  0.4909061592354261  0.9914210802989848
  0.1678185923208097  0.5723017172970066  0.0744991525155419
  0.2530202166450952  0.4788404624321357  0.0723181839968608
  0.2544577518238572  0.5847537297770580  0.0042015978845282
  0.1634899633300310  0.4716917497557310  0.1536861026418255
  0.1555378158545341  0.4860363161570010  0.3268638852208208
  0.1753649202998761  0.5767637942106840  0.4077987236413537
  0.1619483496552281  0.4923803949768805  0.4986311530649266
  0.2478201911297821  0.4937633061841132  0.5935061382188359
  0.2443229475788485  0.5652490650532546  0.5006611910830971
  0.1606210898638934  0.5044637036174698  0.6829673591914597
  0.1617071559644483  0.5877854222507013  0.7654712368277461
  0.2447195676773555  0.5123228916310132  0.7712085473554794
  0.2480986761204529  0.5805529414910582  0.6726950641383299
  0.1559899790316688  0.5097989792905443  0.8557245094121259
  0.1649994816635445  0.5987468986295701  0.9313266104499140
  0.2522234753349206  0.5026473129668313  0.9245703418629087
  0.2483980268053568  0.6677281020267074  0.0937720626419476
  0.2519503385305353  0.7688384349490881  0.0126514335925215
  0.1666458257464541  0.6589267244875583  0.1634780988469649
  0.2459806879508801  0.6481567647797242  0.2389868192247815
  0.2541204741259679  0.7541529011839310  0.1739624311939569
  0.1769694327312188  0.6536257646045105  0.3220334233251678
  0.1743164294344171  0.7371443923310075  0.4170862098100654
  0.1743894607265370  0.7334653417851547  0.5819889538847343
  0.1726866975761381  0.7557778350967549  0.7449902975947997
  0.2459591149877592  0.6652568121557586  0.7567676778340600
  0.2499069035278095  0.7353473183021263  0.6589602593342443
  0.1767940614074875  0.7665400683290574  0.9210184710140293
  0.2537451842507333  0.7543257433154564  0.8376160151940909
  0.1763776192969256  0.8530123837768555  0.0121476559324565
  0.1688150358829409  0.9367243436193151  0.1015165934413215
  0.2561880575943231  0.8521877615077574  0.1061529515975436
  0.2577863761493453  0.9328959795884344  0.0097457914449377
  0.2478690441481468  0.8387367177247440  0.2545585362610907
  0.2496181983195433  0.9324723891829133  0.1821078644854451
  0.1687975458457742  0.8205149991189976  0.3320117940288357
  0.1756461212658402  0.8996278336373034  0.4205848501911068
  0.2497393034015638  0.9209793646669333  0.3339488018514764
  0.1745793224810805  0.9171371376087388  0.7274044058939282
  0.2564131152095805  0.8371406332615886  0.7399740484007520
  0.1773641953844295  0.8476448571984194  0.8259533708208894
  0.1773108793830669  0.9258727430807229  0.9144537743163474
  0.3440194645766644  0.0039858992394980  0.0090229105479296
  0.3432447741350695  0.0915148160950817  0.0912547070702135
  0.3412914232017717  0.0149795796715815  0.1801073594624768
  0.3331909902005723  0.1039939054988235  0.2566365323349509
  0.4207324269696618  0.0106685647509314  0.2656273105039493
  0.4071704536787723  0.0025429059245858  0.4244049588166837
  0.4113619544297265  0.0996463938752639  0.3534279911263801
  0.3295498003961163  0.0008523454080724  0.5006194750539485
  0.4136974428949460  0.9941989191892684  0.5639227595686455
  0.4175374860696424  0.1037846211289255  0.5030310549666536
  0.3363188166434893 -0.0052076234328006  0.6454751732825402
  0.4248622217810837 -0.0115344610019355  0.7364367363882421
  0.4218140334859054  0.0776166571015397  0.6500146788827633
  0.3459356044718682  0.0774696915939041  0.9134017717590914
  0.4302766441775553  0.0000798730478355  0.9133963308933073
  0.4295736088538061  0.0815281576569712  0.8196647528579613
  0.3372088399181870  0.1581601213469463  0.9953648607185940
  0.4251841947161699  0.1759521951886303  0.0827280593892238
  0.3374767163318055  0.1775712470295994  0.1670172077755611
  0.3406089624411590  0.2560743735657279  0.2563229866684220
  0.4254238007269061  0.1719305027232881  0.2637377576932216
  0.4311687505052427  0.2489681995348142  0.1710156451966991
  0.3366826833051120  0.1898623169022944  0.3502677661934256
  0.4185209764218893  0.1814155156939725  0.5863217916475603
  0.4175124997346586  0.2690545474530830  0.5114668620457267
  0.4250956276664111  0.2700665917295444  0.6726148658937450
  0.3431528403104578  0.1509779100821163  0.8214494629939241
  0.3364427697674316  0.2347121128489084  0.9024451663108553
  0.4247880788723024  0.2350724091510234  0.8216211915689534
  0.3385627997554891  0.3952991947279325  0.0725883757821819
  0.4239919537558954  0.3171188504106907  0.0763765416973970
  0.3391881203114672  0.3251960611561992  0.1622544253159200
  0.4238301484910387  0.3405720294178227  0.2460316302261882
  0.3310660119796401  0.3386162466278721  0.3388302357210701
  0.4131200186156906  0.3406694962877549  0.4223486590174303
  0.4133458410596572  0.4190504033542222  0.3341305516078187
  0.3374724789613865  0.3524081462563579  0.5120305337091131
  0.4156614250389926  0.4292892474032265  0.4987419274775524
  0.3385289355791796  0.4279535988200258  0.7731041942822064
  0.4193312092474092  0.4303865463055296  0.6839769574485312
  0.3416827932733515  0.3254338290935809  0.8306298068635448
  0.3417638576263835  0.4088115322227348  0.9098481532514955
  0.4124887567912169  0.4914487115868647  0.0705096187712704
  0.4097613408167180  0.5895030717653141  0.0050563020083840
  0.3291342893254329  0.4779949218126862  0.1560655199334525
  0.4102869539674227  0.4824861308273842  0.2394572993728060
  0.3232872015842387  0.4862630203381381  0.3256668593989526
  0.3187975802006071  0.5565240424432373  0.4155289684404583
  0.4111919872087862  0.5663124671515444  0.3167367163418990
  0.4145070239522779  0.5017882562152317  0.5918972545420905
  0.3333335884072943  0.5069750286657364  0.6840975017026670
  0.4175398308882001  0.5098668805395076  0.7760510816991822
  0.4178274935468715  0.5817732634395258  0.6790376664157085
  0.4169056546035942  0.5033462129645593  0.9194634614175087
  0.3250555301478745  0.6753678677874679  0.0130416108825928
  0.4053530087708187  0.6676191840951584  0.0988474514243250
  0.4029710741861927  0.7555227467649548  0.0166572754779564
  0.3281559719598459  0.7414506441133007  0.2556627986201723
  0.4085834263703366  0.6463468401359105  0.2374831277646315
  0.4028539634674860  0.7522973489036208  0.1804086694092735
  0.3153118034565559  0.6393476522589192  0.3302368379782586
  0.4014326035952129  0.6351175580873248  0.4087618881796633
  0.4098768573917134  0.7231210622880454  0.3221721569355336
  0.3306464680340808  0.6530775603248362  0.4966142694013794
  0.4148697486932006  0.6485709835512954  0.5798531089081705
  0.4068451320135540  0.7348609750583878  0.4882727247121545
  0.3314869958306413  0.6581777935177937  0.6660895039740178
  0.4128148400833205  0.6683738638984088  0.7601154998286880
  0.4118748432699448  0.7374775925430334  0.6679111374172965
  0.4124586601999647  0.6811834083393443  0.9303950575658344
  0.4054442638056820  0.7572489392822030  0.8375010492401341
  0.3337199042935017  0.8510678162836455  0.0119148903522845
  0.3428463980267619  0.9356650535833045  0.1044114264257946
  0.4264528346984146  0.9223233425430669  0.0122120971901459
  0.3335018925318757  0.8298167459530927  0.3308073492667103
  0.3327125382570156  0.9082690315863805  0.4115293233924976
  0.3291339688932339  0.8142848786193290  0.4945909318012517
  0.4089023670134526  0.8944178046536108  0.4938650920422799
  0.3287904834869078  0.8193393209659449  0.6547552856687263
  0.3330806147511189  0.9195825923623175  0.7401761647185034
  0.4111599234401227  0.8308885391940817  0.7446883882945530
  0.4127125406468058  0.9014805562861630  0.6484428002986946
  0.3283128166337999  0.8416201583642765  0.8353971967535923
  0.3398265650159068  0.9295463353807751  0.9170374542330424
  0.4150999952975526  0.8324302806958146  0.9250514988059964
  0.4221609111280756  0.9126357587456894  0.8290363934191310
  0.5062014274246414  0.0047661327086853  0.0122306070348670
  0.5058139311413757  0.0976610320328168  0.0940929139387414
  0.5759610662255321 -0.0020459489860685  0.0978297217427909
  0.5812796940265824  0.0953909590144343  0.0038617406274471
  0.4996240795391468  0.0069873436022601  0.1805547030911271
  0.5062399235101515  0.0915683432789373  0.2663092764321662
  0.5777533634650602  0.0023268295398458  0.2659498457027165
  0.4950313014021647  0.0009505530565460  0.3499620315525124
  0.5013580480206916  0.0940803728968444  0.4283355981171344
  0.5035190096240288  0.9927766156083742  0.4959244017690700
  0.5088497366584769  0.0875518946870176  0.5684976152107475
  0.5932974541602449  0.0894542097492369  0.4984765369852159
  0.4998246081920166  0.9855245685264004  0.6387212715854328
  0.5751730103745285 -0.0057918411574459  0.7247260005781465
  0.5820971680583300  0.0841794317812233  0.6493505861586312
  0.5079032746030572 -0.0024481875641978  0.8203007435620783
  0.4999954520482309  0.0930030828607856  0.9137529173490040
  0.5692699490355182  0.0026126204034671  0.9131711982790303
  0.5823830646879614  0.0847035398391804  0.8166145611852214
  0.5147375079689285  0.2390421269818244  0.0883958535354364
  0.5887768470054344  0.2434966619380976 -0.0009429924065767
  0.5877740674850045  0.1771681909484672  0.2634506953827155
  0.5903890364337854  0.2452631026024385  0.1699159961756271
  0.5056266441468136  0.1847430291386436  0.3507570714144274
  0.5030869901800628  0.2807966185940947  0.4206077283785823
  0.5875721786366732  0.1918891471895168  0.4196015039539732
  0.5090953439768223  0.1921464744478781  0.5016805132281938
  0.5869042237439867  0.2816435302476149  0.5082488290784786
  0.5056871845807193  0.1743795436858735  0.6530897363814262
  0.5052560892050710  0.2491404204980801  0.7409784224557248
  0.5882624611517097  0.2639017078177507  0.6617970573646978
  0.4991337965299134  0.2398028134155250  0.9040521775640605
  0.5827471610282974  0.1646778712990030  0.9079712750584221
  0.4984234406313207  0.3151570677947418  0.9949839083758478
  0.5868677838424200  0.3294535584748399  0.0858724720719275
  0.5839678129578538  0.4047945390208736  0.9853842609761186
  0.5065824156821076  0.4219201369183531  0.2384110826671533
  0.5836072353697779  0.3353879124128269  0.2379852928725202
  0.5035685621892061  0.3525736842296716  0.3285858442324466
  0.5025007746204249  0.4371654936073789  0.5910355936123336
  0.5910124337009355  0.3602921068016911  0.5925430197044826
  0.5799703679394307  0.4280069872901208  0.4984878034674105
  0.5040061896968697  0.3548133895651802  0.6752026392814566
  0.4987155887721591  0.4056715567300805  0.9145468991956339
  0.5865982626018355  0.3123791694704641  0.9093823100061617
  0.5865944453807532  0.4120041059084010  0.8459006719899607
  0.4946537985827229  0.5802589906303350  0.0796533423438164
  0.5840279861320848  0.4857326162005852  0.0672433135264671
  0.5814744101489274  0.5863879375559505  0.0116909401755656
  0.5826188301640053  0.5646605021934289  0.1479163537514240
  0.4976730018209337  0.5731091671124705  0.4040859688955451
  0.5803074540754416  0.4964199429157061  0.4061000854751657
  0.4960600884162418  0.5061304119569522  0.4966353451811901
  0.5805784927421818  0.5751775383333390  0.5003882353355579
  0.5028906150129387  0.5037575679728253  0.6849853223405609
  0.5884539178458721  0.5046735610158246  0.7738460716181221
  0.5827877887285497  0.5823737662276648  0.6742318044661697
  0.4974148436231711  0.5125433123247983  0.8485018455447374
  0.5811025759615968  0.5116197727973031  0.9220958343146768
  0.5821080164059094  0.6023539727345127  0.8448721329765442
  0.4955891515545081  0.6834123601088982  0.0194670231922168
  0.5786606395982996  0.6832794386650708  0.0940832589392912
  0.4948941336962095  0.6598944096936821  0.1682823142699738
  0.4925008081500349  0.7456169172713257  0.2534567416686900
  0.5778225771305301  0.6451696802350460  0.2326178612519985
  0.4895062460235732  0.7234802469343649  0.3981994900577785
  0.5769373504557498  0.6503352774331193  0.4007848340461283
  0.5784230032022702  0.7319242275616100  0.3190630249360286
  0.4903508294114546  0.6486140133561369  0.4971352447401181
  0.5011135296133413  0.7330857733376734  0.5759783380362291
  0.5836263568544051  0.6523347576654214  0.5831468548111317
  0.5004760586980364  0.6582995884903333  0.6685279520985167
  0.4951156570097785  0.6748397181314063  0.8424128975893996
  0.5001552028850066  0.7569677570708089  0.9287938417623728
  0.5810943068676655  0.6750526110146029  0.9350139652200539
  0.5826013549000267  0.7469424882091408  0.8319102079777327
  0.4888929376607211  0.9167655799871672  0.1032468883378513
  0.5690455546684862  0.8391340308125728  0.0983210928306247
  0.5696813260083695  0.9013287113470166  0.0042303195918434
  0.4936263210968352  0.8278325785344627  0.3345409123525009
  0.4963294546638828  0.9049099019581682  0.4178168826291475
  0.4957935498314057  0.8054348676690403  0.4829763558954858
  0.5021147275583504  0.8935293199357704  0.5639937106266898
  0.5839501434475224  0.8137605736291053  0.5699951444125902
  0.4980160820055607  0.8192921259468592  0.6548493995096489
  0.5047687453583216  0.8995976198128705  0.7334734327702386
  0.4999108493215130  0.8206779658708320  0.8315283850467790
  0.5012513321275432  0.9046496318033199  0.9216935647502771
  0.5758800802389702  0.9024048440495518  0.8244109002410387
  0.6447479464717744 -0.0064325090562050  0.0052888468962008
  0.7376584697523322  0.9943401847580757  0.0923454375065970
  0.7412029348845183  0.0639303617637523  0.0015410239946968
  0.6504092394831085 -0.0021388729394733  0.1826965941974062
  0.6620499165627015  0.0909275257267122  0.2624843318878547
  0.7365868752572732  0.0024427608902089  0.2745376101431737
  0.7374985274740716  0.9976689854289361  0.4256381664645869
  0.7481562719562950  0.0965653299608337  0.3498412785524440
  0.6539548870599056  0.9904679982923343  0.4903723575821434
  0.6645230998032652  0.0890251281076514  0.5765097109203851
  0.7388246488333770  0.9892843007640157  0.5632371836522112
  0.7391534026854567  0.0946743590731070  0.4965057294626614
  0.7383293119887266 -0.0050784194227006  0.7232101898050739
  0.6499613246217025 -0.0088964479965975  0.8208926150571072
  0.7390401008826686  0.0704995326513025  0.8187492903573059
  0.6706372182933616  0.1584664158215341  0.0014873902797367
  0.6834578662240066  0.2501308973191866  0.0862744453559384
  0.7513103405378305  0.1462043514798937  0.0892400019118534
  0.6768830053728239  0.2554136399627810  0.2447689945777687
  0.7549750974328485  0.2523200261268800  0.1667059955447093
  0.6645062564992187  0.1872039503342844  0.3432096057817490
  0.7434329408445154  0.1939473631314964  0.4193648557785076
  0.7566147208513684  0.2724111219980523  0.3326301128379630
  0.6614712515563386  0.1932284842451640  0.5007552991145957
  0.7448683180810203  0.2746350913183900  0.5053236180593140
  0.6642187772816581  0.2552595873399255  0.7431078080184543
  0.7463544108217497  0.1504667388096468  0.7314095903027898
  0.7442823551107801  0.2542754968268138  0.6723381656875377
  0.6663455219260387  0.1571099120069900  0.8183958377061505
  0.6767330441919782  0.2341019298965177  0.9059183889100643
  0.7496458596165118  0.1458626106665948  0.9117710431007234
  0.7542126323534121  0.2447956740097950  0.8158652775469529
  0.6780292893774134  0.3164266496607049  0.9912045625009807
  0.6709192002089303  0.3999982786359210  0.0627958378298222
  0.7581904972321970  0.4074239084282516  0.9875903506116358
  0.6593733703216558  0.4223589233496631  0.2381577623328282
  0.7592262567917905  0.4100775591606615  0.1389214907245289
  0.6686046991542073  0.3447946573701736  0.3253195943405063
  0.6687322345612500  0.4261057004169361  0.4097988585634313
  0.7552476930960013  0.3523650536947547  0.4203628141603816
  0.7536168665926493  0.4203047476113998  0.3276481445929266
  0.6677339989762188  0.3597508782405998  0.5056117543495694
  0.6799394452511478  0.4412637924389797  0.5928079181945961
  0.7500593751343064  0.3501042459524263  0.5967871918699741
  0.6681774464629395  0.4228524969367491  0.7639181237861820
  0.7531217480551011  0.3451168176528238  0.7517099709088325
  0.7513567277959846  0.4400151369338010  0.6820788202546875
  0.6733782098878829  0.4129376249858877  0.9139227876801038
  0.7555038464054351  0.4157137374166650  0.8462408644684796
  0.6716729965760160  0.5859081381543800  0.0809604647911180
  0.7598386437658488  0.4955616532678933  0.0635177993628757
  0.6737340585491750  0.5670757695433679  0.2179711247151992
  0.7547166946363623  0.4838510744326258  0.2316808918404744
  0.7609814064963455  0.5749797960611562  0.1467463586269269
  0.6628945446115083  0.5795570717442050  0.4033783121674169
  0.7481714676995412  0.5048584360782644  0.4117423681953765
  0.7567715439132935  0.5684361782202612  0.3152512063228369
  0.7484751763980251  0.5829237313703872  0.4990732046728508
  0.7466912216617808  0.5165584635759667  0.7683177087236980
  0.7468148419505932  0.5906347897140883  0.6773506124177666
  0.6709181983022353  0.5197315874947490  0.8525810688410340
  0.6757123134145668  0.6064078476796088  0.9365873166277182
  0.6686148172124905  0.6887555542957839  0.0189495609501217
  0.6594566589123885  0.7768192381274076  0.0971977168348325
  0.7582113288079072  0.6908337907100800  0.0919168631411370
  0.7526882610433515  0.7793038895319025  0.0085855160921399
  0.6659644490198036  0.6727023538895416  0.1612804128309522
  0.7484129712847327  0.7645576311665019  0.1820728418765378
  0.6648586031039263  0.6425073438174138  0.3044073160032451
  0.7524491373795785  0.6515013889159205  0.4004304322927273
  0.7455852266776715  0.7333356793216160  0.3162756465186231
  0.6635214214247076  0.6519974870946210  0.4925966300669264
  0.6598852836718255  0.7356021990178915  0.5783499896379223
  0.7465801037160315  0.6600758769647574  0.5861479989897589
  0.7465579203171657  0.7290513863651145  0.4904134361264543
  0.7514475605959381  0.7442642710175231  0.6672236887598436
  0.6677087766508594  0.6735181456515559  0.8422067657619003
  0.6661031308168225  0.7552714803347627  0.9211554985707470
  0.7573902165209709  0.6955031270911721  0.9273369771989356
  0.6612369957507526  0.8441516165884915  0.0027095462488861
  0.7465283249549035  0.8489649065849340  0.0955961601817820
  0.7412964500908352  0.8401960185588067  0.2661721611881935
  0.7378249060572040  0.9245208784934473  0.1839175373020668
  0.7459193904188800  0.8078732456560025  0.4047142449705002
  0.7396989229842857  0.9112931626048731  0.3502280394556548
  0.7471675663042723  0.8125665132191737  0.5718041868658288
  0.7439245009419596  0.8955367645949432  0.4857980715030810
  0.6628218575168039  0.8188685329078212  0.6598704345481565
  0.6560471781559929  0.9083131489423686  0.7317733812521324
  0.7461300203207405  0.9009898943574207  0.6481709886880288
  0.6625189048936414  0.8350736737641749  0.8260813370378890
  0.6584649843376864  0.9180551768831636  0.9145596617938739
  0.7403221216842593  0.9206342991823202  0.8170033848305153
  0.9174068090035773  0.9983907872124992  0.0921870480744314
  0.9113884818940599  0.0640697448077416 -0.0032218734936410
  0.8235238305442089  0.0005104804244334  0.1815752461641625
  0.9159863929672785  0.0073672728294076  0.2700236613163408
  0.9083562940580648  0.0799086818041443  0.1777332110524956
  0.8278742198874423  0.0053040840557014  0.3649400027190055
  0.8306485700801611  0.0974355432262051  0.4347332407363135
  0.9073012367146834  0.0881279778704446  0.3525539863938345
  0.8214849703521662  0.0936364235978105  0.5726926294064379
  0.9123241943750409  0.9864276147317836  0.5609609457476172
  0.8248784211877493  0.9863329300936312  0.6359716147305355
  0.8272867804409401  0.0676157717865388  0.7243793759755442
  0.9133523178700158  0.9947088258673066  0.7262474097350214
  0.9141420253129495  0.0786944171500873  0.6379429319366453
  0.8234510992511436  0.9937554418438631  0.8180869289098667
  0.9112279465146501  0.9838615758196582  0.9109063420694123
  0.9142441052872766  0.0648528345345456  0.8249450317957157
  0.8261099544980920  0.1443293909467743 -0.0042518641554482
  0.8323365339416378  0.2326254790291840  0.0774306641649719
  0.9097005780476931  0.1461682839370738  0.0810440792126348
  0.8233653606220140  0.1488082192398276  0.1748311402607790
  0.8316423870859566  0.2595444897176186  0.2480110233816400
  0.9094118353947415  0.2373292620689591  0.1666821236764363
  0.8326921229751693  0.1779241820853858  0.3400540224361350
  0.9112384892997505  0.2657007783819162  0.3427149585121487
  0.8292930049289294  0.1895899805062132  0.5028291595212775
  0.8317930593474945  0.2639610166067118  0.5936193915030695
  0.8355680516235541  0.2383441093976646  0.7467753576078278
  0.9132067707055735  0.2421371670109592  0.6731524138691347
  0.8286039105562104  0.1388026716368054  0.8215585321571752