Mo Fe 
 1.0000000000000000
    22.9680000000000035    0.0000000000000000    0.0000000000000000
     0.0000000000000000   22.9680000000000035    0.0000000000000000
     0.0000000000000000    0.0000000000000000   22.9680000000000035
 Mo  Fe 
 454 410
Cartesian
  0.0000000000000000  0.0000000000000000  0.0000000000000000
  0.0000000000000000  1.9140000000000001  1.9140000000000001
  1.9140000000000001  0.0000000000000000  1.9140000000000001
  1.9140000000000001  1.9140000000000001  0.0000000000000000
  1.9140000000000001  0.0000000000000000  5.7420000000000009
  1.9140000000000001  1.9140000000000001  3.8280000000000003
  0.0000000000000000  0.0000000000000000  7.6560000000000006
  0.0000000000000000  1.9140000000000001 13.3979999999999997
  1.9140000000000001  0.0000000000000000 13.3979999999999997
  1.9140000000000001  1.9140000000000001 11.4840000000000000
  0.0000000000000000  0.0000000000000000 15.3120000000000012
  1.9140000000000001  1.9140000000000001 15.3120000000000012
  0.0000000000000000  0.0000000000000000 19.1400000000000006
  1.9140000000000001  0.0000000000000000 21.0540000000000020
  1.9140000000000001  1.9140000000000001 19.1400000000000006
  0.0000000000000000  5.7420000000000009  1.9140000000000001
  1.9140000000000001  3.8280000000000003  1.9140000000000001
  1.9140000000000001  5.7420000000000009  3.8280000000000003
  0.0000000000000000  5.7420000000000009  9.5700000000000003
  1.9140000000000001  3.8280000000000003  9.5700000000000003
  0.0000000000000000  3.8280000000000003 11.4840000000000000
  1.9140000000000001  3.8280000000000003 13.3979999999999997
  1.9140000000000001  5.7420000000000009 11.4840000000000000
  0.0000000000000000  3.8280000000000003 15.3120000000000012
  1.9140000000000001  5.7420000000000009 15.3120000000000012
  0.0000000000000000  3.8280000000000003 19.1400000000000006
  0.0000000000000000  5.7420000000000009 21.0540000000000020
  1.9140000000000001  3.8280000000000003 21.0540000000000020
  1.9140000000000001  5.7420000000000009 19.1400000000000006
  0.0000000000000000  9.5700000000000003  1.9140000000000001
  1.9140000000000001  7.6560000000000006  1.9140000000000001
  0.0000000000000000  9.5700000000000003  5.7420000000000009
  1.9140000000000001  7.6560000000000006  5.7420000000000009
  0.0000000000000000  7.6560000000000006  7.6560000000000006
  0.0000000000000000  9.5700000000000003  9.5700000000000003
  1.9140000000000001  7.6560000000000006  9.5700000000000003
  0.0000000000000000  7.6560000000000006 11.4840000000000000
  0.0000000000000000  9.5700000000000003 13.3979999999999997
  1.9140000000000001  7.6560000000000006 13.3979999999999997
  1.9140000000000001  9.5700000000000003 11.4840000000000000
  1.9140000000000001  9.5700000000000003 15.3120000000000012
  0.0000000000000000 11.4840000000000000  0.0000000000000000
  0.0000000000000000 13.3979999999999997  1.9140000000000001
  1.9140000000000001 11.4840000000000000  1.9140000000000001
  1.9140000000000001 13.3979999999999997  0.0000000000000000
  0.0000000000000000 11.4840000000000000  3.8280000000000003
  0.0000000000000000 13.3979999999999997  5.7420000000000009
  1.9140000000000001 11.4840000000000000  5.7420000000000009
  1.9140000000000001 13.3979999999999997  3.8280000000000003
  0.0000000000000000 11.4840000000000000  7.6560000000000006
  0.0000000000000000 11.4840000000000000 11.4840000000000000
  0.0000000000000000 13.3979999999999997 13.3979999999999997
  0.0000000000000000 13.3979999999999997 17.2260000000000026
  1.9140000000000001 11.4840000000000000 17.2260000000000026
  1.9140000000000001 13.3979999999999997 15.3120000000000012
  0.0000000000000000 13.3979999999999997 21.0540000000000020
  1.9140000000000001 15.3120000000000012  1.9140000000000001
  0.0000000000000000 15.3120000000000012  3.8280000000000003
  0.0000000000000000 17.2260000000000026  5.7420000000000009
  0.0000000000000000 17.2260000000000026  9.5700000000000003
  1.9140000000000001 17.2260000000000026  7.6560000000000006
  0.0000000000000000 15.3120000000000012 11.4840000000000000
  0.0000000000000000 17.2260000000000026 13.3979999999999997
  1.9140000000000001 15.3120000000000012 13.3979999999999997
  1.9140000000000001 17.2260000000000026 11.4840000000000000
  0.0000000000000000 17.2260000000000026 17.2260000000000026
  1.9140000000000001 17.2260000000000026 19.1400000000000006
  0.0000000000000000 19.1400000000000006  0.0000000000000000
  0.0000000000000000 21.0540000000000020  1.9140000000000001
  1.9140000000000001 21.0540000000000020  0.0000000000000000
  1.9140000000000001 19.1400000000000006  9.5700000000000003
  0.0000000000000000 19.1400000000000006 11.4840000000000000
  1.9140000000000001 19.1400000000000006 17.2260000000000026
  1.9140000000000001 21.0540000000000020 15.3120000000000012
  5.7420000000000009  0.0000000000000000  1.9140000000000001
  5.7420000000000009  1.9140000000000001  0.0000000000000000
  5.7420000000000009  1.9140000000000001  3.8280000000000003
  3.8280000000000003  1.9140000000000001  9.5700000000000003
  5.7420000000000009  0.0000000000000000  9.5700000000000003
  3.8280000000000003  1.9140000000000001 13.3979999999999997
  3.8280000000000003  0.0000000000000000 15.3120000000000012
  5.7420000000000009  0.0000000000000000 17.2260000000000026
  3.8280000000000003  1.9140000000000001 21.0540000000000020
  5.7420000000000009  0.0000000000000000 21.0540000000000020
  5.7420000000000009  1.9140000000000001 19.1400000000000006
  5.7420000000000009  3.8280000000000003  1.9140000000000001
  3.8280000000000003  5.7420000000000009  5.7420000000000009
  5.7420000000000009  5.7420000000000009  3.8280000000000003
  3.8280000000000003  3.8280000000000003  7.6560000000000006
  3.8280000000000003  5.7420000000000009  9.5700000000000003
  5.7420000000000009  3.8280000000000003  9.5700000000000003
  5.7420000000000009  5.7420000000000009 11.4840000000000000
  5.7420000000000009  3.8280000000000003 17.2260000000000026
  5.7420000000000009  5.7420000000000009 15.3120000000000012
  5.7420000000000009  3.8280000000000003 21.0540000000000020
  5.7420000000000009  9.5700000000000003  0.0000000000000000
  5.7420000000000009  7.6560000000000006  5.7420000000000009
  5.7420000000000009  9.5700000000000003  3.8280000000000003
  3.8280000000000003  7.6560000000000006  7.6560000000000006
  5.7420000000000009  7.6560000000000006  9.5700000000000003
  3.8280000000000003  7.6560000000000006 11.4840000000000000
  5.7420000000000009  7.6560000000000006 13.3979999999999997
  3.8280000000000003  7.6560000000000006 15.3120000000000012
  3.8280000000000003  9.5700000000000003 17.2260000000000026
  5.7420000000000009  7.6560000000000006 17.2260000000000026
  5.7420000000000009  9.5700000000000003 15.3120000000000012
  3.8280000000000003  9.5700000000000003 21.0540000000000020
  5.7420000000000009  9.5700000000000003 19.1400000000000006
  3.8280000000000003 11.4840000000000000  0.0000000000000000
  3.8280000000000003 13.3979999999999997  1.9140000000000001
  5.7420000000000009 11.4840000000000000  1.9140000000000001
  5.7420000000000009 13.3979999999999997  0.0000000000000000
  3.8280000000000003 11.4840000000000000  3.8280000000000003
  5.7420000000000009 11.4840000000000000  5.7420000000000009
  5.7420000000000009 13.3979999999999997  3.8280000000000003
  5.7420000000000009 11.4840000000000000  9.5700000000000003
  3.8280000000000003 11.4840000000000000 11.4840000000000000
  5.7420000000000009 11.4840000000000000 13.3979999999999997
  3.8280000000000003 13.3979999999999997 17.2260000000000026
  5.7420000000000009 11.4840000000000000 17.2260000000000026
  3.8280000000000003 13.3979999999999997 21.0540000000000020
  5.7420000000000009 11.4840000000000000 21.0540000000000020
  3.8280000000000003 15.3120000000000012  0.0000000000000000
  5.7420000000000009 17.2260000000000026  0.0000000000000000
  5.7420000000000009 17.2260000000000026  3.8280000000000003
  3.8280000000000003 15.3120000000000012  7.6560000000000006
  3.8280000000000003 17.2260000000000026  9.5700000000000003
  5.7420000000000009 15.3120000000000012  9.5700000000000003
  5.7420000000000009 17.2260000000000026  7.6560000000000006
  3.8280000000000003 17.2260000000000026 13.3979999999999997
  3.8280000000000003 15.3120000000000012 15.3120000000000012
  5.7420000000000009 15.3120000000000012 17.2260000000000026
  3.8280000000000003 15.3120000000000012 19.1400000000000006
  5.7420000000000009 15.3120000000000012 21.0540000000000020
  5.7420000000000009 17.2260000000000026 19.1400000000000006
  3.8280000000000003 19.1400000000000006  0.0000000000000000
  5.7420000000000009 21.0540000000000020  0.0000000000000000
  5.7420000000000009 19.1400000000000006  5.7420000000000009
  5.7420000000000009 21.0540000000000020  3.8280000000000003
  3.8280000000000003 21.0540000000000020  9.5700000000000003
  5.7420000000000009 21.0540000000000020  7.6560000000000006
  5.7420000000000009 19.1400000000000006 13.3979999999999997
  5.7420000000000009 19.1400000000000006 17.2260000000000026
  5.7420000000000009 21.0540000000000020 15.3120000000000012
  3.8280000000000003 21.0540000000000020 21.0540000000000020
  7.6560000000000006  1.9140000000000001  1.9140000000000001
  9.5700000000000003  0.0000000000000000  1.9140000000000001
  9.5700000000000003  1.9140000000000001  0.0000000000000000
  7.6560000000000006  1.9140000000000001  5.7420000000000009
  9.5700000000000003  0.0000000000000000  5.7420000000000009
  9.5700000000000003  1.9140000000000001  3.8280000000000003
  7.6560000000000006  0.0000000000000000  7.6560000000000006
  9.5700000000000003  1.9140000000000001  7.6560000000000006
  7.6560000000000006  1.9140000000000001 13.3979999999999997
  7.6560000000000006  1.9140000000000001 17.2260000000000026
  9.5700000000000003  0.0000000000000000 17.2260000000000026
  9.5700000000000003  1.9140000000000001 19.1400000000000006
  7.6560000000000006  5.7420000000000009  5.7420000000000009
  9.5700000000000003  5.7420000000000009  3.8280000000000003
  7.6560000000000006  3.8280000000000003  7.6560000000000006
  9.5700000000000003  3.8280000000000003 13.3979999999999997
  7.6560000000000006  3.8280000000000003 15.3120000000000012
  7.6560000000000006  5.7420000000000009 17.2260000000000026
  7.6560000000000006  3.8280000000000003 19.1400000000000006
  7.6560000000000006  5.7420000000000009 21.0540000000000020
  9.5700000000000003  7.6560000000000006  1.9140000000000001
  7.6560000000000006  7.6560000000000006  3.8280000000000003
  7.6560000000000006  9.5700000000000003  5.7420000000000009
  9.5700000000000003  7.6560000000000006  5.7420000000000009
  7.6560000000000006  9.5700000000000003  9.5700000000000003
  9.5700000000000003  7.6560000000000006  9.5700000000000003
  9.5700000000000003  9.5700000000000003  7.6560000000000006
  7.6560000000000006  7.6560000000000006 11.4840000000000000
  9.5700000000000003  7.6560000000000006 13.3979999999999997
  9.5700000000000003  9.5700000000000003 11.4840000000000000
  9.5700000000000003  9.5700000000000003 15.3120000000000012
  7.6560000000000006  7.6560000000000006 19.1400000000000006
  7.6560000000000006  9.5700000000000003 21.0540000000000020
  7.6560000000000006 11.4840000000000000  0.0000000000000000
  9.5700000000000003 11.4840000000000000  1.9140000000000001
  7.6560000000000006 11.4840000000000000  7.6560000000000006
  7.6560000000000006 13.3979999999999997  9.5700000000000003
  7.6560000000000006 13.3979999999999997 13.3979999999999997
  9.5700000000000003 13.3979999999999997 11.4840000000000000
  7.6560000000000006 13.3979999999999997 17.2260000000000026
  9.5700000000000003 13.3979999999999997 15.3120000000000012
  7.6560000000000006 11.4840000000000000 19.1400000000000006
  7.6560000000000006 13.3979999999999997 21.0540000000000020
  9.5700000000000003 11.4840000000000000 21.0540000000000020
  9.5700000000000003 13.3979999999999997 19.1400000000000006
  7.6560000000000006 15.3120000000000012  0.0000000000000000
  7.6560000000000006 17.2260000000000026  1.9140000000000001
  9.5700000000000003 15.3120000000000012  1.9140000000000001
  9.5700000000000003 17.2260000000000026  0.0000000000000000
  7.6560000000000006 15.3120000000000012  3.8280000000000003
  7.6560000000000006 17.2260000000000026  5.7420000000000009
  9.5700000000000003 15.3120000000000012  5.7420000000000009
  7.6560000000000006 15.3120000000000012  7.6560000000000006
  9.5700000000000003 17.2260000000000026  7.6560000000000006
  7.6560000000000006 15.3120000000000012 11.4840000000000000
  7.6560000000000006 17.2260000000000026 13.3979999999999997
  9.5700000000000003 15.3120000000000012 13.3979999999999997
  7.6560000000000006 17.2260000000000026 17.2260000000000026
  9.5700000000000003 15.3120000000000012 17.2260000000000026
  9.5700000000000003 17.2260000000000026 15.3120000000000012
  9.5700000000000003 17.2260000000000026 19.1400000000000006
  7.6560000000000006 21.0540000000000020  1.9140000000000001
  9.5700000000000003 19.1400000000000006  1.9140000000000001
  9.5700000000000003 21.0540000000000020  0.0000000000000000
  7.6560000000000006 19.1400000000000006  3.8280000000000003
  9.5700000000000003 21.0540000000000020  3.8280000000000003
  7.6560000000000006 21.0540000000000020 13.3979999999999997
  9.5700000000000003 19.1400000000000006 13.3979999999999997
  9.5700000000000003 21.0540000000000020 11.4840000000000000
  7.6560000000000006 19.1400000000000006 15.3120000000000012
  7.6560000000000006 21.0540000000000020 17.2260000000000026
  9.5700000000000003 19.1400000000000006 17.2260000000000026
  9.5700000000000003 21.0540000000000020 15.3120000000000012
  7.6560000000000006 19.1400000000000006 19.1400000000000006
  9.5700000000000003 21.0540000000000020 19.1400000000000006
 11.4840000000000000  1.9140000000000001  1.9140000000000001
 13.3979999999999997  0.0000000000000000  1.9140000000000001
 11.4840000000000000  0.0000000000000000  3.8280000000000003
 11.4840000000000000  1.9140000000000001  5.7420000000000009
 13.3979999999999997  1.9140000000000001  3.8280000000000003
 11.4840000000000000  1.9140000000000001  9.5700000000000003
 13.3979999999999997  0.0000000000000000 17.2260000000000026
 11.4840000000000000  0.0000000000000000 19.1400000000000006
 11.4840000000000000  1.9140000000000001 21.0540000000000020
 13.3979999999999997  1.9140000000000001 19.1400000000000006
 11.4840000000000000  5.7420000000000009  1.9140000000000001
 13.3979999999999997  3.8280000000000003  1.9140000000000001
 13.3979999999999997  5.7420000000000009  0.0000000000000000
 11.4840000000000000  5.7420000000000009  9.5700000000000003
 13.3979999999999997  5.7420000000000009  7.6560000000000006
 11.4840000000000000  3.8280000000000003 11.4840000000000000
 11.4840000000000000  3.8280000000000003 15.3120000000000012
 13.3979999999999997  3.8280000000000003 17.2260000000000026
 11.4840000000000000  5.7420000000000009 21.0540000000000020
 13.3979999999999997  5.7420000000000009 19.1400000000000006
 11.4840000000000000  9.5700000000000003  1.9140000000000001
 13.3979999999999997  7.6560000000000006  1.9140000000000001
 13.3979999999999997  9.5700000000000003  0.0000000000000000
 11.4840000000000000  7.6560000000000006  3.8280000000000003
 13.3979999999999997  7.6560000000000006  5.7420000000000009
 11.4840000000000000  7.6560000000000006  7.6560000000000006
 13.3979999999999997  9.5700000000000003  7.6560000000000006
 11.4840000000000000  7.6560000000000006 11.4840000000000000
 11.4840000000000000  9.5700000000000003 13.3979999999999997
 13.3979999999999997  7.6560000000000006 13.3979999999999997
 11.4840000000000000  7.6560000000000006 15.3120000000000012
 11.4840000000000000  9.5700000000000003 17.2260000000000026
 13.3979999999999997  9.5700000000000003 15.3120000000000012
 11.4840000000000000  7.6560000000000006 19.1400000000000006
 13.3979999999999997  9.5700000000000003 19.1400000000000006
 11.4840000000000000 11.4840000000000000  0.0000000000000000
 13.3979999999999997 11.4840000000000000  1.9140000000000001
 13.3979999999999997 13.3979999999999997  0.0000000000000000
 11.4840000000000000 13.3979999999999997  5.7420000000000009
 13.3979999999999997 11.4840000000000000  5.7420000000000009
 13.3979999999999997 13.3979999999999997  3.8280000000000003
 11.4840000000000000 13.3979999999999997  9.5700000000000003
 13.3979999999999997 11.4840000000000000  9.5700000000000003
 13.3979999999999997 13.3979999999999997  7.6560000000000006
 11.4840000000000000 11.4840000000000000 11.4840000000000000
 13.3979999999999997 11.4840000000000000 13.3979999999999997
 13.3979999999999997 11.4840000000000000 17.2260000000000026
 11.4840000000000000 15.3120000000000012  0.0000000000000000
 13.3979999999999997 15.3120000000000012  1.9140000000000001
 13.3979999999999997 17.2260000000000026  0.0000000000000000
 11.4840000000000000 15.3120000000000012  3.8280000000000003
 11.4840000000000000 17.2260000000000026  5.7420000000000009
 13.3979999999999997 15.3120000000000012  5.7420000000000009
 11.4840000000000000 15.3120000000000012  7.6560000000000006
 11.4840000000000000 17.2260000000000026  9.5700000000000003
 13.3979999999999997 15.3120000000000012  9.5700000000000003
 13.3979999999999997 15.3120000000000012 13.3979999999999997
 13.3979999999999997 17.2260000000000026 11.4840000000000000
 11.4840000000000000 15.3120000000000012 15.3120000000000012
 11.4840000000000000 17.2260000000000026 17.2260000000000026
 13.3979999999999997 15.3120000000000012 17.2260000000000026
 11.4840000000000000 15.3120000000000012 19.1400000000000006
 13.3979999999999997 17.2260000000000026 19.1400000000000006
 11.4840000000000000 19.1400000000000006  0.0000000000000000
 11.4840000000000000 21.0540000000000020  1.9140000000000001
 11.4840000000000000 19.1400000000000006  3.8280000000000003
 11.4840000000000000 21.0540000000000020  5.7420000000000009
 13.3979999999999997 19.1400000000000006  5.7420000000000009
 11.4840000000000000 19.1400000000000006  7.6560000000000006
 11.4840000000000000 21.0540000000000020  9.5700000000000003
 13.3979999999999997 19.1400000000000006  9.5700000000000003
 13.3979999999999997 21.0540000000000020  7.6560000000000006
 11.4840000000000000 19.1400000000000006 11.4840000000000000
 13.3979999999999997 19.1400000000000006 13.3979999999999997
 13.3979999999999997 21.0540000000000020 11.4840000000000000
 11.4840000000000000 19.1400000000000006 15.3120000000000012
 11.4840000000000000 21.0540000000000020 17.2260000000000026
 13.3979999999999997 19.1400000000000006 17.2260000000000026
 15.3120000000000012  1.9140000000000001  1.9140000000000001
 17.2260000000000026  0.0000000000000000  5.7420000000000009
 15.3120000000000012  0.0000000000000000  7.6560000000000006
 17.2260000000000026  0.0000000000000000  9.5700000000000003
 17.2260000000000026  1.9140000000000001  7.6560000000000006
 15.3120000000000012  0.0000000000000000 11.4840000000000000
 15.3120000000000012  1.9140000000000001 13.3979999999999997
 17.2260000000000026  0.0000000000000000 13.3979999999999997
 17.2260000000000026  1.9140000000000001 11.4840000000000000
 15.3120000000000012  0.0000000000000000 15.3120000000000012
 15.3120000000000012  1.9140000000000001 17.2260000000000026
 15.3120000000000012  1.9140000000000001 21.0540000000000020
 17.2260000000000026  0.0000000000000000 21.0540000000000020
 15.3120000000000012  3.8280000000000003  0.0000000000000000
 17.2260000000000026  5.7420000000000009  0.0000000000000000
 15.3120000000000012  5.7420000000000009  5.7420000000000009
 17.2260000000000026  3.8280000000000003  5.7420000000000009
 17.2260000000000026  5.7420000000000009  3.8280000000000003
 15.3120000000000012  3.8280000000000003  7.6560000000000006
 15.3120000000000012  5.7420000000000009  9.5700000000000003
 17.2260000000000026  3.8280000000000003  9.5700000000000003
 15.3120000000000012  5.7420000000000009 13.3979999999999997
 17.2260000000000026  3.8280000000000003 13.3979999999999997
 17.2260000000000026  3.8280000000000003 17.2260000000000026
 17.2260000000000026  5.7420000000000009 15.3120000000000012
 15.3120000000000012  5.7420000000000009 21.0540000000000020
 17.2260000000000026  5.7420000000000009 19.1400000000000006
 15.3120000000000012  7.6560000000000006  0.0000000000000000
 17.2260000000000026  7.6560000000000006  1.9140000000000001
 17.2260000000000026  7.6560000000000006  5.7420000000000009
 17.2260000000000026  9.5700000000000003  3.8280000000000003
 15.3120000000000012  7.6560000000000006  7.6560000000000006
 15.3120000000000012  9.5700000000000003  9.5700000000000003
 17.2260000000000026  7.6560000000000006  9.5700000000000003
 15.3120000000000012  9.5700000000000003 13.3979999999999997
 17.2260000000000026  9.5700000000000003 11.4840000000000000
 17.2260000000000026  7.6560000000000006 17.2260000000000026
 17.2260000000000026  9.5700000000000003 15.3120000000000012
 15.3120000000000012  7.6560000000000006 19.1400000000000006
 15.3120000000000012  9.5700000000000003 21.0540000000000020
 17.2260000000000026  7.6560000000000006 21.0540000000000020
 17.2260000000000026  9.5700000000000003 19.1400000000000006
 17.2260000000000026 11.4840000000000000  1.9140000000000001
 17.2260000000000026 13.3979999999999997  0.0000000000000000
 17.2260000000000026 11.4840000000000000  5.7420000000000009
 17.2260000000000026 13.3979999999999997  3.8280000000000003
 15.3120000000000012 11.4840000000000000  7.6560000000000006
 15.3120000000000012 13.3979999999999997  9.5700000000000003
 17.2260000000000026 11.4840000000000000  9.5700000000000003
 15.3120000000000012 11.4840000000000000 11.4840000000000000
 15.3120000000000012 13.3979999999999997 13.3979999999999997
 17.2260000000000026 13.3979999999999997 11.4840000000000000
 15.3120000000000012 13.3979999999999997 17.2260000000000026
 15.3120000000000012 13.3979999999999997 21.0540000000000020
 17.2260000000000026 11.4840000000000000 21.0540000000000020
 15.3120000000000012 17.2260000000000026  1.9140000000000001
 17.2260000000000026 15.3120000000000012  1.9140000000000001
 17.2260000000000026 17.2260000000000026  0.0000000000000000
 15.3120000000000012 15.3120000000000012  3.8280000000000003
 15.3120000000000012 17.2260000000000026  5.7420000000000009
 15.3120000000000012 15.3120000000000012  7.6560000000000006
 15.3120000000000012 17.2260000000000026  9.5700000000000003
 17.2260000000000026 15.3120000000000012  9.5700000000000003
 15.3120000000000012 17.2260000000000026 13.3979999999999997
 17.2260000000000026 15.3120000000000012 13.3979999999999997
 15.3120000000000012 15.3120000000000012 15.3120000000000012
 17.2260000000000026 15.3120000000000012 17.2260000000000026
 15.3120000000000012 17.2260000000000026 21.0540000000000020
 17.2260000000000026 15.3120000000000012 21.0540000000000020
 15.3120000000000012 19.1400000000000006  0.0000000000000000
 15.3120000000000012 21.0540000000000020  1.9140000000000001
 17.2260000000000026 19.1400000000000006  1.9140000000000001
 15.3120000000000012 19.1400000000000006  3.8280000000000003
 15.3120000000000012 21.0540000000000020  5.7420000000000009
 17.2260000000000026 19.1400000000000006  5.7420000000000009
 15.3120000000000012 21.0540000000000020  9.5700000000000003
 17.2260000000000026 21.0540000000000020  7.6560000000000006
 15.3120000000000012 19.1400000000000006 11.4840000000000000
 17.2260000000000026 19.1400000000000006 13.3979999999999997
 15.3120000000000012 19.1400000000000006 15.3120000000000012
 15.3120000000000012 21.0540000000000020 21.0540000000000020
 17.2260000000000026 21.0540000000000020 19.1400000000000006
 21.0540000000000020  0.0000000000000000  1.9140000000000001
 19.1400000000000006  1.9140000000000001  5.7420000000000009
 21.0540000000000020  0.0000000000000000  5.7420000000000009
 19.1400000000000006  0.0000000000000000  7.6560000000000006
 21.0540000000000020  1.9140000000000001  7.6560000000000006
 19.1400000000000006  0.0000000000000000 11.4840000000000000
 19.1400000000000006  1.9140000000000001 13.3979999999999997
 21.0540000000000020  1.9140000000000001 11.4840000000000000
 19.1400000000000006  0.0000000000000000 15.3120000000000012
 21.0540000000000020  0.0000000000000000 17.2260000000000026
 21.0540000000000020  0.0000000000000000 21.0540000000000020
 21.0540000000000020  1.9140000000000001 19.1400000000000006
 19.1400000000000006  3.8280000000000003  0.0000000000000000
 19.1400000000000006  5.7420000000000009  1.9140000000000001
 21.0540000000000020  3.8280000000000003  1.9140000000000001
 21.0540000000000020  5.7420000000000009  0.0000000000000000
 19.1400000000000006  3.8280000000000003  3.8280000000000003
 19.1400000000000006  5.7420000000000009  5.7420000000000009
 21.0540000000000020  5.7420000000000009  3.8280000000000003
 21.0540000000000020  3.8280000000000003  9.5700000000000003
 21.0540000000000020  5.7420000000000009  7.6560000000000006
 19.1400000000000006  3.8280000000000003 11.4840000000000000
 21.0540000000000020  3.8280000000000003 13.3979999999999997
 21.0540000000000020  5.7420000000000009 11.4840000000000000
 21.0540000000000020  3.8280000000000003 17.2260000000000026
 19.1400000000000006  5.7420000000000009 21.0540000000000020
 21.0540000000000020  3.8280000000000003 21.0540000000000020
 21.0540000000000020  5.7420000000000009 19.1400000000000006
 19.1400000000000006  9.5700000000000003  1.9140000000000001
 21.0540000000000020  9.5700000000000003  0.0000000000000000
 19.1400000000000006  7.6560000000000006  3.8280000000000003
 19.1400000000000006  9.5700000000000003  5.7420000000000009
 19.1400000000000006  7.6560000000000006  7.6560000000000006
 19.1400000000000006  9.5700000000000003  9.5700000000000003
 21.0540000000000020  9.5700000000000003  7.6560000000000006
 19.1400000000000006  7.6560000000000006 11.4840000000000000
 19.1400000000000006  9.5700000000000003 13.3979999999999997
 21.0540000000000020  9.5700000000000003 11.4840000000000000
 19.1400000000000006  7.6560000000000006 15.3120000000000012
 19.1400000000000006  9.5700000000000003 17.2260000000000026
 21.0540000000000020  9.5700000000000003 15.3120000000000012
 19.1400000000000006 13.3979999999999997  1.9140000000000001
 21.0540000000000020 13.3979999999999997  0.0000000000000000
 19.1400000000000006 11.4840000000000000  3.8280000000000003
 21.0540000000000020 13.3979999999999997  3.8280000000000003
 19.1400000000000006 13.3979999999999997  9.5700000000000003
 21.0540000000000020 13.3979999999999997  7.6560000000000006
 19.1400000000000006 13.3979999999999997 13.3979999999999997
 19.1400000000000006 11.4840000000000000 15.3120000000000012
 19.1400000000000006 13.3979999999999997 17.2260000000000026
 21.0540000000000020 11.4840000000000000 17.2260000000000026
 21.0540000000000020 13.3979999999999997 15.3120000000000012
 19.1400000000000006 11.4840000000000000 19.1400000000000006
 19.1400000000000006 13.3979999999999997 21.0540000000000020
 21.0540000000000020 11.4840000000000000 21.0540000000000020
 21.0540000000000020 13.3979999999999997 19.1400000000000006
 19.1400000000000006 15.3120000000000012  0.0000000000000000
 19.1400000000000006 17.2260000000000026  1.9140000000000001
 19.1400000000000006 15.3120000000000012  3.8280000000000003
 21.0540000000000020 17.2260000000000026  3.8280000000000003
 21.0540000000000020 15.3120000000000012  9.5700000000000003
 19.1400000000000006 15.3120000000000012 11.4840000000000000
 21.0540000000000020 15.3120000000000012 13.3979999999999997
 21.0540000000000020 17.2260000000000026 11.4840000000000000
 19.1400000000000006 17.2260000000000026 17.2260000000000026
 21.0540000000000020 17.2260000000000026 15.3120000000000012
 19.1400000000000006 19.1400000000000006  0.0000000000000000
 21.0540000000000020 21.0540000000000020  0.0000000000000000
 21.0540000000000020 19.1400000000000006  9.5700000000000003
 19.1400000000000006 19.1400000000000006 11.4840000000000000
 19.1400000000000006 21.0540000000000020 17.2260000000000026
 21.0540000000000020 19.1400000000000006 17.2260000000000026
 21.0540000000000020 21.0540000000000020 15.3120000000000012
 19.1400000000000006 19.1400000000000006 19.1400000000000006
  3.8280000000000003 13.3979999999999997  9.5700000000000003
  0.0000000000000000 19.1400000000000006 15.3120000000000012
  9.5700000000000003  3.8280000000000003  5.7420000000000009
 17.2260000000000026 19.1400000000000006  9.5700000000000003
  5.7420000000000009  1.9140000000000001 11.4840000000000000
 17.2260000000000026 17.2260000000000026  7.6560000000000006
 11.4840000000000000  0.0000000000000000  7.6560000000000006
  9.5700000000000003  1.9140000000000001 15.3120000000000012
  9.5700000000000003 13.3979999999999997  0.0000000000000000
 17.2260000000000026 11.4840000000000000 17.2260000000000026
 21.0540000000000020 13.3979999999999997 11.4840000000000000
  7.6560000000000006  0.0000000000000000 15.3120000000000012
  3.8280000000000003  0.0000000000000000  0.0000000000000000
  3.8280000000000003  9.5700000000000003  9.5700000000000003
  0.0000000000000000  1.9140000000000001 21.0540000000000020
 19.1400000000000006  1.9140000000000001  1.9140000000000001
 21.0540000000000020  1.9140000000000001 15.3120000000000012
  0.0000000000000000 11.4840000000000000 15.3120000000000012
 17.2260000000000026 19.1400000000000006 21.0540000000000020
 13.3979999999999997 21.0540000000000020  0.0000000000000000
 11.4840000000000000  5.7420000000000009  5.7420000000000009
 11.4840000000000000  3.8280000000000003  7.6560000000000006
  9.5700000000000003 15.3120000000000012  9.5700000000000003
 15.3120000000000012  5.7420000000000009 17.2260000000000026
 11.4840000000000000  3.8280000000000003  0.0000000000000000
  1.9140000000000001  9.5700000000000003  7.6560000000000006
  3.8280000000000003  5.7420000000000009 13.3979999999999997
 21.0540000000000020  3.8280000000000003  5.7420000000000009
 13.3979999999999997  3.8280000000000003 13.3979999999999997
 15.3120000000000012  3.8280000000000003 19.1400000000000006
  3.8280000000000003 21.0540000000000020  5.7420000000000009
  9.5700000000000003 19.1400000000000006  5.7420000000000009
  9.5700000000000003  9.5700000000000003 19.1400000000000006