108
Lattice="12.149999999999999 0.0 0.0 0.0 12.149999999999999 0.0 0.0 0.0 12.149999999999999" Properties=species:S:1:pos:R:3:momenta:R:3 pbc="T T T"
Al      -0.04780136      -0.09541973       0.01072844      -0.47327061       0.04826158       0.08445118
Al      -0.02438611       2.04355504       2.04773382       0.39068350       0.50702374       0.40422663
Al       2.01524685      -0.04479885       2.00788469      -0.26332393      -1.00263663      -0.29374452
Al       1.99914704       2.03027821      -0.05805987       0.02852761      -0.54799410      -0.17082535
Al      -0.03698010      -0.07675739       3.89237714       0.05182753       1.28041854       0.36027156
Al       0.04035904       2.00222116       5.96867248      -0.31966547      -0.02577889       0.35932906
Al       2.05918493      -0.12346427       6.02561432      -0.11667593       0.94001608       0.40896995
Al       1.94051374       1.91924490       4.02329997      -0.19879344       0.28410874      -0.23993834
Al       0.12460945       0.04879417       8.10446913      -0.79118042      -0.42901780       0.39378522
Al      -0.00073740       2.01178298      10.09067920       0.25384504       0.05938162       0.34172431
Al       1.92238303       0.05854664      10.15655405       0.91207626      -0.15920732       1.03383580
Al       2.05615964       2.03894590       8.17674572      -0.05006422      -0.08066372       0.46922781
Al       0.06517972       4.06621291      -0.01626570       0.17230760      -0.11327686       0.00867043
Al       0.02075172       6.10830606       2.08502584       0.02076372       0.32545670      -0.00088497
Al       1.97148275       4.00189024       2.23517103       0.78421118       0.17521088      -0.64009019
Al       2.00670565       6.15229877      -0.00421292       0.92944335      -0.16437376      -0.00807421
Al      -0.00979280       4.03913653       4.17191970      -0.40331348      -0.87404989      -0.87402132
Al      -0.09545614       6.09409184       6.18504007       0.29020784       0.37044725      -0.50835631
Al       1.90740205       4.11513455       6.11479786       0.34039073      -0.16103568       0.59133200
Al       2.09555200       6.20949669       4.12044197      -0.43779619      -0.90695949       0.86131680
Al      -0.01996947       3.97179618       8.17645939       0.11282364       0.44501569      -0.09105539
Al       0.07976204       6.23218482      10.05574890       0.41225305       0.37490384      -0.10722725
Al       2.13694399       4.15220625      10.04662010      -0.76504414      -0.54016012       0.44724936
Al       2.02380228       6.27074208       8.09196069       0.51452605      -0.61583535       0.87172797
Al      -0.01955520       8.22965342      -0.08063180       0.34768990       0.53165068      -0.75943626
Al      -0.07528950      10.17693259       2.07439091      -0.67203886      -0.36143671      -0.31334770
Al       2.00081495       8.14926639       2.04031612      -0.05006990      -0.99169178      -0.21143401
Al       1.95816898      10.16895975      -0.03948020       0.30656150      -0.37304343       0.27977397
Al       0.00755161       8.15730701       4.09373691      -0.29954392       0.35163878      -0.21645792
Al       0.03946016      10.00556179       5.92696349       0.05312241       0.41374637      -0.52323058
Al       2.09172339       8.19625461       6.05375987       0.18142623      -0.71221443      -0.03892857
Al       2.06903095      10.03985328       3.97834828      -0.82046730       0.27428895      -0.72977665
Al      -0.06421705       8.19107610       8.06551281       0.46862311      -0.00838530       0.81070245
Al       0.03314538      10.08200925      10.06991983       1.18182276       0.62609946       0.13512041
Al       1.96908778       8.08001440      10.02570470       0.13185469      -1.09609186       0.44415486
Al       1.98788122      10.13678327       8.00171386       0.74014377      -0.16664257       0.17086330
Al       4.02060271      -0.00654332       0.01736516      -0.31947486       0.27538786      -0.06592411
Al       4.11146163       1.96562846       2.17243885      -0.81975364       0.64956862      -0.56961576
Al       6.16864579      -0.12535047       1.99087955       0.05791241       0.50938426      -0.35645010
Al       6.03481542       1.96784875       0.04475313      -0.09009300      -0.40943660      -0.19216228
Al       4.05649259      -0.06256567       3.96763189       0.02645636       0.24598463       0.06107037
Al       3.88199475       1.87854865       6.10935225       0.98954347       0.82474676      -0.95107497
Al       6.03365741       0.08899586       6.14268085       0.74803971      -0.18476060       0.42862759
Al       6.09289947       2.05366244       3.98663604      -0.16145592       0.18691921      -0.28272922
Al       3.91056271       0.10490872       8.16870285      -0.67926880      -0.01919396      -0.44954386
Al       3.99374204       1.95282867      10.17033882      -1.24798230       0.39673492       0.73282926
Al       6.05076655      -0.08886236      10.26530942      -0.96522262       0.62012185      -0.54724742
Al       6.02749576       1.94130880       8.15562916      -0.02512125       0.09860713       0.98933285
Al       3.82654276       4.12435990       0.14986917       0.29415630       1.07496983      -0.72320333
Al       4.06329382       6.12340000       2.07001792       0.00262477      -0.24081991       0.28941497
Al       6.00356754       4.13440196       2.05602317       0.28390380       0.44068827       0.20505055
Al       6.05901524       6.09618578      -0.02585075      -0.29337299       0.57981569       0.31939738
Al       4.03389477       3.87456567       4.17250099       0.58073570       0.50744197      -0.47063754
Al       4.09660398       6.12174314       6.07254677       0.08737672       0.57292715      -0.36051247
Al       6.15817797       3.93514108       6.12474833      -0.29720003      -0.03179830      -0.04078477
Al       6.04029184       5.99283245       4.14866482       0.83163612       0.77694986      -0.38579366
Al       4.14192083       4.01587188       8.00496758      -0.34545021      -0.19513210       0.30378778
Al       4.07904474       6.20036237      10.04512172      -0.35720516       0.33442309      -0.53324450
Al       6.08039471       4.05655093      10.15137475      -0.09437345       0.32492964      -0.68415510
Al       6.17683007       6.00320153       7.95537748       0.34523625      -0.43556602      -0.17672206
Al       3.99941285       8.09321183      -0.05500900       0.08054003       0.50365416      -0.20476723
Al       4.06722152      10.08703123       2.03735079       0.54217918      -0.06228950      -0.58346002
Al       6.16994695       8.15857376       2.18410940      -0.69305512      -0.80796059      -0.09471095
Al       6.05115520      10.00494374       0.00051629       0.62085589       0.54259602      -0.43068111
Al       4.16707108       8.18689874       4.08080030      -0.34994887       0.36918514      -0.06307320
Al       4.06077077      10.23553503       6.04890217       0.57769013      -0.78238800      -0.49943598
Al       6.23684687       8.04376492       6.02299860       0.41688901      -0.95114574       1.05685885
Al       6.18594252      10.18687609       4.08155290      -0.08453429       0.02926813       0.04939950
Al       4.03312253       8.13742157       7.95123177      -0.75040675      -0.27374944       0.53356303
Al       4.00918521      10.15473973      10.23473922       0.58110118      -0.53511916      -0.00848994
Al       5.96162934       8.17577609      10.02275835      -0.01665734      -0.64891726       0.36890311
Al       6.09446540      10.29496059       8.09757274      -0.44892338      -0.92902875      -0.11194568
Al       8.10586206      -0.14106448       0.00086076       0.12511131      -0.57409193       0.71380689
Al       8.07050346       2.04179044       1.92844993       1.14846541      -0.02467307       0.50018261
Al      10.07133521       0.04580438       2.02689981       0.45789347      -0.45846968       0.13182886
Al      10.16796894       1.95487797      -0.02359438      -0.39651628       0.68926527       0.42649813
Al       8.16200755       0.03539877       4.16350540      -0.11356543       0.16739261      -1.38544691
Al       8.24803920       1.90507452       6.00949075      -0.10004581       0.25306643       0.68539180
Al      10.13727228       0.09511769       5.89817919      -0.27069495       0.63444010       0.05280528
Al      10.12068325       2.08444642       4.03445616       0.22758721       0.20854798       0.21806612
Al       7.89790621       0.03777614       8.13969394       1.01473451       0.71728750       0.34030857
Al       8.08117065       1.91269863      10.22224902      -0.47750794      -0.36453968      -0.35364973
Al      10.12465666      -0.05361147      10.15876600      -0.33272749       0.58553889       0.55773578
Al      10.23631630       1.78800407       8.18127672       0.65334545       1.19255577       0.25999025
Al       8.15435134       4.17548647       0.03850917      -1.06464842      -0.03778716       0.53870602
Al       8.11955143       6.13763999       2.02092929       0.45282451      -0.67196126       0.02686433
Al      10.15603952       4.10124406       1.93247132       0.43826180      -0.06370557      -0.26683583
Al      10.10070148       6.21237619      -0.04839986      -0.15234868      -0.23435905      -0.59468988
Al       8.20492990       4.03150321       3.93079275       0.43776040      -0.64688748       0.59568639
Al       8.25452861       5.93715774       6.14805482      -0.58255200      -0.37771135       0.12358042
Al      10.18111498       3.83093443       6.23147380      -0.38561867       0.36162339      -0.73400893
Al      10.06233684       6.04264238       4.06084538      -0.59070205      -0.01830749      -0.31618196
Al       8.14308311       3.88211675       8.28194742      -0.35196296       0.56469932      -0.37007036
Al       8.02858896       6.04876975      10.01129948      -0.33351818       0.00826517       0.68457131
Al      10.21805664       3.99528535      10.09946173       0.03423725      -0.10688060      -0.28158307
Al      10.09932633       6.01607380       8.11793160      -0.31028315      -0.46817322      -0.83615375
Al       8.07263644       8.07905285      -0.10103180       0.20291262       0.45919611       0.87948466
Al       8.15289802      10.07175601       1.99607343      -0.79228671      -1.03665246      -0.06471746
Al      10.12301150       8.13493782       2.09682599      -0.20718158      -0.20792514       0.19478120
Al      10.09599124      10.09058931       0.01253137       0.23135799      -0.29798695      -0.30036524
Al       8.16992872       8.06835352       4.16647031      -0.96438646      -0.36386050       0.43290937
Al       8.06049074      10.30472653       6.15318785       0.32370166       0.61307991      -1.74503027
Al      10.05374050       8.15665758       6.10095784      -0.48916704      -0.35897199       0.37310489
Al      10.14341658      10.16592057       4.11243475       0.07949934      -0.56765193      -0.72877481
Al       8.09045827       8.08827162       7.94900325      -0.01150547       0.04217536       0.48924864
Al       8.06911845      10.17473634       9.97668740       0.16737573       0.33170173       0.23793015
Al      10.08937233       8.12830413      10.00668320      -0.09660174      -0.69354227       0.20886792
Al      10.07525573      10.22029444       7.97036199       0.03749163      -0.28886825       0.00338509
