Co Mo Fe                                
   1.00000000000000     
    22.7189267589093689   -0.0007376218530554   -0.0272190225128929
    -0.0005101669155656   22.4903801276027515   -0.0119662294842327
    -0.0272299211128716   -0.0119614482484610   22.6257983797993312
   Co   Mo   Fe
   188   532   144
Direct
 -0.0064506053577631  0.0030083333099166  0.1666582907545601
 -0.0044959447368856  0.0875089551505425  0.2396496237329130
 -0.0023207266911018  0.0002758799927723  0.3161029510202997
 -0.0008698044489077  0.0955868534048972  0.4181573680992932
 -0.0035261878128916 -0.0118637904326036  0.6745449370977451
  0.0056782848916301  0.0810029839200485  0.9169611755083598
  0.0851250328539355 -0.0039149805560013  0.9184079699858357
  0.0850055367454753  0.1646766657030088  0.0808570913693217
  0.0824260540481236  0.2530024209188558  0.1600914045212062
  0.0842289841999322  0.1614142732624366  0.9116519162994419
  0.0825822430984587  0.4131097694963650  0.1601019753990858
  0.0833165537038165  0.3366687830108376  0.4235090566216642
 -0.0021133992734601  0.4213525420679075  0.5790105532018297
  0.0803387266718032  0.4212464235262102  0.4966949126870494
  0.0009369001354516  0.4304084519493297  0.7518072439235759
  0.0857173387776153  0.4178354390062288  0.6755395731629732
  0.0039020765217566  0.4980449952521520  0.3328620086077052
  0.0810591997720242  0.5023787724460630  0.4140012549927416
  0.0869600847781429  0.5839787693448463  0.6654621336389959
  0.0964073458814508  0.5066420758157264  0.9196272547040796
 -0.0025290745143818  0.6677334280141027  0.1605055815141969
 -0.0101360181212291  0.6643094718318332  0.3323717796593000
 -0.0028914753740133  0.6633866307076692  0.4941138918249540
  0.0874664562309854  0.6644589018321786  0.5845978777171322
  0.0805372981683571  0.7404761765433020  0.5019093076412922
  0.0068943698600186  0.6618863920848317  0.6649816613613285
  0.0854605960603718  0.7458960837840006  0.8316796614305486
  0.0803282833445700  0.9116908677634367  0.0046341729092540
  0.0850345003472699  0.9204467399203186  0.3110728330007035
  0.0108937199568042  0.9154416561033524  0.5865786401867206
 -0.0065548190442555  0.9124525397308911  0.7562592586404019
  0.2520302961324809  0.0800298085132219 -0.0060638442767887
  0.2632331944760987  0.0057004541042797  0.2439254775816393
  0.2512204919179002  0.0868748114502201  0.1627352474784698
  0.1705607168863621  0.0799053502182352  0.9090997810653939
  0.1705853324001617  0.1611145335685260  0.1563629783519229
  0.2422618966644703  0.1674574665453570  0.2444324157501209
  0.1665125198685128  0.1625184012507664  0.3322381855289426
  0.2401293665588242  0.2606333565323066  0.6632461066343818
  0.2503506858996673  0.1667771358014431  0.9162666487598612
  0.1644008075209208  0.3364622261073926  0.0006910090449676
  0.1718840967281045  0.4187204164728030  0.0838625737932251
  0.2451438635802622  0.3374796377868409  0.0769417500510286
  0.2365886878517054  0.3320077013434214  0.2484748279099981
  0.1612314757529285  0.3454989342883486  0.5091750491833968
  0.2390830560545149  0.3395727902488050  0.5887357866027845
  0.1661964300210459  0.3442356234698722  0.6723008605355849
  0.2495947727080120  0.3444373877610920  0.7471774091882761
  0.1701362134821620  0.3397366535362812  0.8312354642093537
  0.1732578375575887  0.4246101454618131  0.9134566947476178
  0.1725176962867475  0.4990094418562608  0.1661607158425122
  0.2552156854789294  0.5769358092694536  0.1692984031419776
  0.1657292927076304  0.5855343081737768  0.4181670145089954
  0.2513384990505430  0.5030704913200050  0.5900335049352481
  0.1662462509043580  0.5012515230792705  0.6668522443399885
  0.2551797570543203  0.4973414557186279  0.9087292521199818
  0.1759572081028126  0.7532535654740137  0.0851950686327878
  0.1689008641101563  0.7436673497849723  0.4071990773937282
  0.2532994859393682  0.6649115546738664  0.4140284213095220
  0.1618546659461003  0.7433613675847277  0.5826036341392211
  0.1636371891491527  0.6633825987190727  0.6670970534128662
  0.1594687397866741  0.7470096696009050  0.7530879932272889
  0.2431738163808887  0.6635480177505181  0.7503114101660588
  0.2606683330459988  0.9212059755402685  0.1627743074753936
  0.1772987861068600  0.9116329007426202  0.7450446652475038
  0.2573013283178599  0.8422827563179677  0.7453506186171411
  0.2527098083536067  0.9129803717354167  0.6645464344838800
  0.2559855658389429  0.8428331658763749  0.9177353444409367
  0.3355289537964527 -0.0059039977506945 -0.0027476845941848
  0.3325605669793620  0.0845209408627289  0.0743968254651749
  0.3330852753477703  0.0918116754233039  0.4270174506987935
  0.4129369815697091  0.0882447461049821  0.5045500794336797
  0.3404074394332766 -0.0009423459658585  0.6688582951017854
  0.3425974821434543  0.0898801511936880  0.7495409988154651
  0.3398822510601318 -0.0017479656160936  0.8351838645429904
  0.4169924631050148  0.0001086115742588  0.9206276812115584
  0.3269720256770240  0.1702036788496870 -0.0018740458467167
  0.4215936076890416  0.2484678124655469  0.6490300479507540
  0.3286609456353748  0.2506905442300636  0.9209332050838197
  0.3284557372527584  0.3393687852194359 -0.0065044041022894
  0.4095137725654067  0.4200484778058844  0.6666040914209922
  0.4093330716202803  0.4145272818530810  0.8225567339343584
  0.4147470262155212  0.5808763140503100  0.1719843719105846
  0.3281544375371435  0.5865656644081596  0.4153454155931070
  0.4209954345359324  0.5819644831333000  0.3357089255298252
  0.3342592666286794  0.4999235196186891  0.6714265804165809
  0.4184047668214527  0.4963013103667513  0.7472544261079922
  0.4157872839871066  0.5812876085724336  0.6721751684078900
  0.3353770648475409  0.4936977178060513  0.8287635897893237
  0.3375827541796619  0.7578920953492028  0.0811847749930346
  0.4161543634807200  0.7476580448652120  0.1684556999589794
  0.3300478427953616  0.7464430298736782  0.4160009704202952
  0.4254537699101443  0.7517648317078506  0.6647159381908987
  0.4166526961412810  0.7573935187941521  0.8323295573971626
  0.4149050160531061  0.9209186973841774 -0.0028344375730483
  0.4153509081133680  0.9179026482816950  0.1621322202072916
  0.3296148855386062  0.8291170602107161  0.3408710481869131
  0.4162834693224300  0.9163444200824128  0.6617605471466416
  0.3381167778004464  0.9201062713606168  0.9186599933102174
  0.4158246563414181  0.8377374980669769  0.9184382806458882
  0.4973279745874475 -0.0078226656963145 -0.0016288549687002
  0.4927507402739591 -0.0000863187385490  0.1676439542216235
  0.4970432179236281  0.0831985527565312  0.5815715425778161
  0.5004092285823971  0.0883162245857668  0.7507881004081113
  0.5807850983273256 -0.0071450719911993  0.9230895654156586
  0.5820475907324554  0.1666768006987171  0.0832110137883208
  0.5891785036839142  0.1656978021390537  0.2471597182844232
  0.5022660384063929  0.1708218510832818  0.6593378090972902
  0.5839947869223173  0.1707107620178257  0.7411320983730009
  0.5848049812905959  0.3275169749610580  0.2505459904683752
  0.4917180717754710  0.5807066309606340  0.2577566627224364
  0.5003434666640536  0.4996075517403313  0.3387948417100328
  0.4945241366055217  0.4950006587569100  0.6687460442990840
  0.5794897577288084  0.5833787318571479  0.6585924298542861
  0.5781039479567547  0.6697154719623482  0.0803119154601181
  0.4942436805371484  0.7511470954888834  0.2479235267575009
  0.5000403139843733  0.6651025993539315  0.3361859069167549
  0.5843238566800522  0.6642055826464522  0.4166478965472716
  0.5049268937554796  0.6657195641335492  0.4988731051754832
  0.5770668728230328  0.7484289584029847  0.5015263825560150
  0.5024428978786828  0.7543539892190940  0.7451510490006656
  0.5794710685273075  0.6702103702709004  0.7390042219024361
  0.4933222358720722  0.9172975327425108  0.0855484949549213
  0.5822980835488867  0.8284380840118228  0.5761611780056287
  0.5914617002349352  0.9193309654735662  0.4934345399689849
  0.4938089173723397  0.8369467401636724  0.8351943692574740
  0.7548962260702328  0.0024308631466015  0.0927845417315448
  0.7557197507384426  0.0844447973519292  0.1710312846237248
  0.6742881194849915 -0.0016381743168238  0.4926377655700931
  0.6685094029487401  0.0867311782806172  0.7369495110264008
  0.7525233123418177  0.1598569767724654  0.0896781284598945
  0.7580186521776638  0.1680228702041424  0.2450479086337686
  0.7602547757049388  0.1679011306127262  0.4171730608373211
  0.6840686844162833  0.2442335956274745  0.5783903797793560
  0.7621877168770034  0.2450018967031831  0.5042483034426041
  0.6733432780774451  0.2522480398227345  0.7396202186719573
  0.7520045221130439  0.3388708227951629  0.0854329518097593
  0.7531990252440397  0.3324115869412326  0.4197658094560044
  0.7588847697482461  0.3252145851539944  0.5809961718670534
  0.7556202963104751  0.4220640791065126  0.4920158153711433
  0.7425642188772862  0.3392645070085913  0.9251861447191302
  0.6650645335732569  0.5861562506519561  0.0863987153633520
  0.7487724013830345  0.5059282702947623  0.0863542155178166
  0.6700398394574014  0.5822128696532727  0.2513866252419077
  0.7522350659049658  0.4995845884693367  0.4199621246219835
  0.7551050406795575  0.5818317972392324  0.3302732578215341
  0.6665945136653555  0.5052705416722139  0.4994118899721592
  0.6645387430551756  0.5898042498345867  0.5783875511291307
  0.7464318390791504  0.5823217388133213  0.6536178937011097
  0.6601643048526132  0.6712180624318332  0.0085234457283079
  0.6663255738507599  0.7512308487558492  0.0877610083621152
  0.7447564188107098  0.7490608231856729  0.0029780985679407
  0.7538428723584020  0.6608147842867593  0.2506628553420208
  0.6670581998596824  0.7490554439329830  0.5848629907711163
  0.7406546176074572  0.6612110456036751  0.7446006889191462
  0.7491056805235984  0.9150115888303447  0.3335792449038451
  0.7490579522661034  0.8325651101744552  0.5817314309131086
  0.6706731006433062  0.8319069585539719  0.8370950713102603
  0.7468009620096491  0.9124471457830284  0.8431955259440289
  0.8300229183845527  0.0799571653048281  0.0918519048442276
  0.9113847442043236 -0.0008114643972869  0.0857569495179181
  0.9128823960653861  0.0807451252856085  0.0112385021702968
  0.8287908554641281  0.0015845165369702  0.1727133262858127
  0.9131805019250082  0.0013305249690123  0.2506853511267410
  0.8489185216016925  0.0765931836042386  0.5805946203148442
  0.9165018707144797  0.0820668149497029  0.4939578024761848
  0.9198193171293345  0.0669946727541668  0.6751584256901274
  0.8361504084314251  0.2494115196069111  0.2436148244873628
  0.9163731231633059  0.1729018034587576  0.2457339842163000
  0.9169879636236973  0.2532423357911357  0.1622291911538210
  0.9147287593313336  0.4270982253094419 -0.0022345586699002
  0.8359289979952391  0.3346883717517690  0.1621291931526662
  0.9160992494384468  0.4147360866120405  0.1656226920696778
  0.8331477999080763  0.4201509839822956  0.4223288515657648
  0.8372971723404261  0.3368932512834183  0.6589695000486339
  0.8326316787368536  0.5880856314022049  0.0899984534011749
  0.8395951178299736  0.4990943398098362  0.1688971264400862
  0.8292319621189409  0.5850432883612183  0.5765433166736680
  0.8248976505204427  0.5796108698437550  0.7405407316840502
  0.9160924625940656  0.6671406934666029  0.0855459144089479
  0.9139747376514465  0.7433733216842170  0.0039562052607284
  0.9111785623265237  0.6629805552007085  0.2499811150667533
  0.9130399769906249  0.7378979458131000  0.1702091188432818
  0.9150979532360061  0.6643503210288474  0.4163729673323978
  0.8355608866285287  0.6663395436280581  0.4988525445678526
  0.9256016978820018  0.8342196203062957  0.4038925649629954
  0.9180577346848947  0.9120992995688636  0.3268579047720724
  0.9189103353445117  0.9149231599825456  0.6770841585569507
  0.0891040035286809  0.7417146873312879  0.1676872909414293
  0.8234664775625397  0.3408016331802081  0.8410881771828308
  0.1856546096711379  0.7439338341080791  0.2485392490139920
 -0.0098437703027640  0.8269658028780794  0.0071239302911670
  0.0833074169177274  0.5866151197669675  0.1541252673268289
  0.1566192981279463  0.4182552972164975  0.2434212551419774
  0.1735412853707246  0.8406326435362819  0.8251731441714584
  0.5926118520034833  0.3357654124228990  0.5698718530355492
  0.4130016322666352  0.8294657208174452  0.4227675054838644
  0.5931741064301943  0.4160163769056549  0.3366288605368228
  0.0056092260935772  0.5138678261742845  0.8390625111667732
  0.7467395833005407  0.8225211709313053  0.0894678735379740
  0.5806268463160390  0.0054911996607638  0.5784414359256914
  0.1620522675761874  0.9096553964788912  0.9167730251922843
  0.6624353610390984  0.4120931744817316  0.2474187835642123
  0.2502944312807293  0.4179205149517679  0.8311937197476041
  0.4124021445462298  0.4887858172912400  0.0882271815638334
  0.7544931664853672  0.7516515512751779  0.5056848062396959
  0.6748731777637900  0.0004712580043759  0.1769155389299067
  0.7411664711525605  0.4113183281668339  0.3443884657907309
  0.8322428334170330  0.4138998646889454  0.0787702032649614
  0.0984773146106313  0.4251114383556422 -0.0043817277364017
  0.1707088845829903  0.0065864208045326  0.3150504196774386
  0.5054293318965616  0.2586907247493125  0.7326442083432363
  0.4263611766780606 -0.0041461109171879  0.5791221833414114
  0.6776194313518098  0.3237611316039794  0.8313799710947547
  0.8317890514698696  0.9206938363258130  0.7611474200214861
  0.0840976326215772  0.9195179811888974  0.1761733281295160
  0.5885188871142709  0.0875930706651175  0.8279938843931459
  0.7475594471406589  0.4151902163641740  0.6568312733370237
  0.3309562992258337  0.6664197104537747  0.1669641943143223
  0.1618333887641465  0.4158712321675502  0.4254201546881509
  0.0834417925583243 -0.0037454116663748  0.0861316704859162
  0.5848423151482051  0.2606168262193620  0.8265591728440111
  0.2662807501991389 -0.0105170670478817  0.7527360418851763
 -0.0059886184776290  0.3517588992050848  0.8420920057316065
  0.7279477273123318  0.5096347839007931  0.9289411172036606
  0.8256534909552730  0.3344859290393854  0.4949248537010421
  0.4082633769087191  0.3216897829139772  0.4263303075557081
  0.4831206589024704  0.9221681701962358  0.2595822434750271
  0.1630773300409458  0.5799505421917871  0.5881637579873581
  0.7459259946026419  0.8226872367245146  0.4024852136041124
  0.4307283376943310  0.6684312596233436  0.5877798061106791
  0.0788798124239225  0.5062258972793047  0.2428231298234964
  0.7644365171395533  0.3387494171396595  0.2475148603603204
  0.4952583569824838  0.4068513410162762  0.7389408875296252
  0.3180689504632070  0.4073348845707052  0.4108384941570054
  0.5723090561807919  0.6619590991549695  0.2534651534812298
  0.5811656514989474  0.3307188262243492  0.0723401287564820
  0.9124062648534945  0.3345691037830308  0.2392653884702285
  0.8184946347584824  0.4310511984594164  0.7445893976652679
  0.4149881071804506  0.1728162420151833  0.9274435138892698
  0.7661334260442809  0.2496994591044747  0.3319080819744880
 -0.0140794053343792  0.1657311164888433  0.6703543237626828
  0.3248312776976561  0.3389228485060207  0.1726523821540195
  0.9171371152161336  0.0085790140887702  0.9198466757213912
  0.4105192880991130  0.3349689443424325  0.9227154056426761
  0.0947709623569088  0.2551209069552622  0.5012308935613520
  0.2352256789602469  0.4097498121348891  0.3320388970725486
  0.6451328380843384  0.5876210018419625  0.9242454329879828
  0.4110145814586251  0.0080638074449933  0.2431112981950902
 -0.0110365851939423  0.7341119261532457  0.2474120618841591
  0.6620305008237030  0.4133256352638141  0.4353957053642086
  0.4289392061608511  0.0860271893604706  0.6684243138840068
  0.1629420053394034  0.9188178535747364  0.5950574899842301
  0.9220430695073240  0.3376327326680867  0.4161958958478352
  0.5826654958403032  0.9120305520319796 -0.0015283028340287
  0.4152905922475456  0.1734021907942437  0.0656482828575035
  0.4108808456920409  0.2479378690990043  0.3388252291405702
  0.6488673252496939  0.5899648742493246  0.7418292809592317
  0.2632593412765584  0.9262354613063184  0.3354376615608478
  0.5785335593050697 -0.0136362686207590  0.0858607110977525
  0.4167638594502481  0.8323186530326745  0.5709872314962521
  0.9191814508207932  0.9126070695464864  0.8379475135232616
  0.2481925443924252  0.0765601791165841  0.5060645021285700
  0.1662132536389624 -0.0033084126319481  0.6832147950028500
  0.5042766420531962  0.0815585028898645  0.9248876871404810
  0.7365658526099312  0.6590673509556189  0.9278666514289468
  0.5732700206989578  0.6794719320691229  0.9280752212407050
  0.4980055234796433  0.4894659618822053 -0.0043046451720765
  0.5767663120070974  0.5887184276918398  0.1614593251193538
  0.0027132828182870  0.9091353762234128  0.9228515831012357
  0.5035457892406174  0.2513888905004304  0.2502253186462742
  0.1653939725212809 -0.0002296649164349 -0.0065868193568760
  0.7456921084622679 -0.0053959260005096  0.4105300839814204
  0.7423585136133545 -0.0013481431927312  0.7582432845017157
  0.3306243877371911  0.9238208920067537  0.5824242051148180
  0.7412965435761516  0.4218067026805786  0.8376664572227760
  0.8199968420305765  0.7432347526879785  0.7428620673190506
  0.5834859248490046  0.8368524662950437  0.4138834735523376
  0.7635454682648000  0.3218521534459963  0.7417343669565604
  0.4921865543933484  0.4262111252384967  0.5828558858835498
  0.6764564897643330  0.1681808395572576  0.6630214829471711
  0.2505054624176723  0.7547101830554332  0.8169129544496235
  0.7335886520985990  0.5862207574174751  0.8323725676055979
  0.5911809008348125  0.2476345782268600  0.6544502436919325
  0.5843297157016433  0.5797552457542425  0.0155966943653743
  0.6735902284247879  0.7501793149679488  0.7482544604512245
  0.9105009127521673  0.0757598819997965  0.1694172279891731
  0.5016391672374456  0.2450619047037847  0.4351531990123710
  0.7585577151519313  0.2408885392275772  0.8291559127038769
  0.6612637069595493  0.1762357255857210  0.8181572579218860
  0.1630027189952352  0.3384698804262589  0.1566061205289781
  0.9304853629468324  0.8394163907174383  0.5903883501357290
  0.7648835224987859  0.1694148073968420  0.7355746607455412
  0.8280321183839607  0.5122128603497758  0.0109756375826413
  0.0834503656062360  0.0787873447297421  0.8363429949531107
 -0.0051010136620888  0.4971460453956706  0.1608238834114063
 -0.0096439261869573  0.1706377925006284  0.1650736305362194
  0.5909321168715482  0.2427711242716261  0.3384865872381251
 -0.0000506641710135 -0.0010954463536084  0.0002262603427494
  0.5927609123157928  0.4236485403610616  0.0025155965989302
  0.0853708420804188  0.8361238340281468  0.7532286036261963
 -0.0050990891248331  0.6668639347114836  0.0091620937932944
  0.0016939125436603  0.0031289680874326  0.4967499950299968
  0.0824322016679952  0.6556050749983887  0.2455301882509862
  0.0724049262285993  0.0064820089733083  0.5981078495792775
  0.4175057171473604  0.3365396383671928  0.0764668884658035
  0.1852563547090160  0.6674404875355454  0.1619528265625739
  0.7544003885207952 -0.0057454617080751  0.2559510390325016
  0.0096076335815233  0.5874285251510379  0.9272949588365891
  0.0843550858304268  0.2453391041000205  0.3349892159953238
 -0.0046653859012769  0.8183144131248763  0.8275987623435203
  0.0816100395795514  0.5841757619994591  0.4929130473037847
  0.5919413405937066  0.1679354006169115  0.9198796567588348
  0.5944025595476891  0.2432043585947212  0.5104191690168757
  0.9259542754160731  0.4204795186856559  0.3309984152783025
  0.9013578347945599  0.8268450348772378  0.2440421049346758
  0.2380762090064123  0.1635812956465402  0.5946364260183807
  0.0103537367181467  0.9122644657602976  0.3938195380803899
  0.1790695059742779  0.7610346909752906  0.9150602036033645
  0.4156296911884386  0.0793110583919366  0.0009610615476703
  0.4055342333504818  0.5035350716390233  0.5884010538939077
  0.4914628278456534  0.7616267104795100  0.9156579536278109
  0.8296852417053803  0.0833690276434635  0.9199631585027971
  0.0885166788220318  0.7437600860815961  0.6668509426165510
  0.2461708896294469  0.5016163257388774  0.2525692791891010
  0.5038509628171588  0.0823289036671613  0.0803670495718708
 -0.0066865899521426  0.9167448735326196  0.0879998136093674
  0.0789696126923973  0.6708559738675398  0.4098304294977589
  0.5957580304473606  0.0931124623355695  0.3325880547533298
  0.5848294682205543  0.7605095600931410  0.0178764115529453
  0.1587974681954223  0.5115803905299423  0.3369932069783717
  0.4226919557767051  0.9221105910852736  0.8423763618106311
  0.2529651800934050  0.8350247609265536  0.0908948375970884
  0.2487329176896640  0.1567681250190521  0.0742763728524347
  0.6754999223159222  0.3219547991488279  0.6548041917244288
  0.8395781716159435  0.1694426039536843  0.1622917070176384
 -0.0094608661136295  0.9201887488103467  0.2460737259403448
  0.2393801858113735  0.1715718187008230  0.4233034743137893
  0.4025222203398551  0.4138337788276996  0.4946127231783018
  0.8231825381488564  0.6594039877646953  0.8285429262179862
  0.3325756633700514  0.6745461765850799  0.8222212831219160
  0.0905555200033258  0.4988429082433658  0.7438796765508285
  0.4087520716089218  0.8266204258302453  0.2543891704568519
  0.4967266331808382  0.3334428839085176  0.8329086456935840
  0.5084716481176027  0.1718902948271287  0.8283357985572218
  0.8384287498015012  0.8363385895345560  0.4970827194092088
  0.6783515611899646  0.4202776628054038  0.5667744411814849
  0.0087347885231763  0.4087271956648851  0.2425862088724814
 -0.0175777285702884  0.0845802923262276  0.5892137596684687
  0.0799207948746706  0.0849858168480969 -0.0038078645807397
  0.7454595351644674  0.4968737615504527  0.2501418426779189
  0.4208735394234844  0.7400042927073418  0.4939826209051565
  0.0017870321762277  0.4361307674158269  0.9241132775246067
 -0.0003907753767883  0.5102358988338964  0.0096089277945057
  0.0038294290626460  0.3394708912039999 -0.0125028599006755
  0.2377006458124393  0.8275869831888574  0.5870050919571682
  0.2404946315066460  0.4171910714926563 -0.0019969625906086
  0.5783629374610192  0.7564331105709985  0.6648632149347122
  0.7420795463062183  0.2504049888416914  0.0138452568880734
  0.4095001517294788  0.5903541306885105  0.4984717278558711
  0.7486865838366294  0.5859467685195467  0.5068231657565003
  0.4159189092152275  0.4814331595714243  0.9060090199847343
  0.4149890008836215  0.0058566674474090  0.7512630224789871
  0.9198837297989410  0.3364629842027930  0.0799853984431949
  0.6659036391799559  0.6647368816294180  0.1707248079053346
  0.0067911163635532  0.6590301325798802  0.8366491512661122
 -0.0071168031699461  0.3529962182232977  0.6710777968454786
  0.5047368110661072  0.4082271904805934  0.2629110508528800
  0.4071719200628882  0.6709904329101180  0.0827706639033236
  0.4837867095028334  0.5771298916919613  0.0717824836202615
  0.0022628992286987  0.2613199777330685  0.2391597724197237
  0.3320083899617183  0.4849299164264737 -0.0044729000753700
  0.5880064780301998  0.4887817345608922  0.7396280676902849
  0.9328683514604308  0.9055518822369976  0.4917386374358699
  0.1729346930888548  0.4237807805362238  0.5893607187663572
  0.9130379535273538  0.5751649621425143  0.3361551686761492
  0.0860912185719708  0.0865208733401304  0.1559088107837988
  0.1775413785887851  0.2628332601131405  0.7521520421590933
  0.0011793958102134 -0.0004129616413968  0.8379769214799621
  0.4167035656369200  0.0934667920747214  0.1513273233031251
  0.3304487941419415  0.4075792718288305  0.2649198791462443
  0.5877842857931477  0.3311305144853587  0.9315891719893739
  0.6600135033270962  0.5090254667236259  0.1639732053968380
  0.7561448360476328  0.0726675221858345  0.6595095537297052
  0.1488046929207902  0.2605664466161490  0.6010496473746164
  0.6689207692913208  0.0748098012997262  0.0929446768194071
  0.4173902625862982  0.2448020784264628  0.8324149741697134
  0.7675910239144148  0.0770455957887240  0.4972741275942208
 -0.0075412001503479  0.1553198612613384  0.8317357044286802
  0.7620455882105632  0.8370381267586694  0.2536501568675855
  0.5022321904324990  0.2470623112970295  0.9299278893893385
  0.5826482374096288  0.2505566055164525  0.1624408584935974
 -0.0086502754161698  0.5818350020530298  0.2529663332464094
  0.3335819145264651  0.5055460083465215  0.3317556223006741
  0.2535517499980041 -0.0111317340895024  0.9150248319156705
  0.5793265463538734  0.0797430856449003  0.1738050037915198
  0.5749048080440456  0.9088407328633913  0.8435962275471068
  0.2401999317789351  0.2512245208550143  0.1561654290792349
  0.4971466868846123  0.9148875215343765  0.4143010498976340
  0.6701894946257702  0.4192500226041764  0.0908659726345465
  0.1807824026154764  0.0075617408204389  0.1713998906348773
  0.2381207202480592  0.3187356703123546  0.4264270269948464
  0.5894052892780115  0.4139409244715908  0.6535198577535154
  0.0794054848491064  0.0119775205418197  0.2441226852421066
  0.0786840514841519  0.4948397647581431  0.5867053646073729
  0.1575675605664893  0.1570076892096630  0.5052126485217825
  0.3317139696914219  0.0943716553646197  0.2383932396656588
  0.0833125055382926  0.1585594152691900  0.5957436755678871
  0.9190792302650348  0.2584278248792019  0.6564732909922546
  0.9156713666270738  0.1728507930790877  0.4246566326229495
  0.6909184774493375  0.1586634016479523  0.5059253697322625
  0.4100057751684832  0.2548923764315382  0.5221757289344238
  0.8372480982303031  0.9038906864111206  0.4051863638604929
  0.9034705358650270  0.3525691257036013  0.7520038439803679
  0.8368590737787409  0.9106384899321421  0.5817186935078920
  0.8350554996056432  0.3413926248412418  0.3380616140147119
  0.5833951188818772  0.0030086983378623  0.2639204642076735
  0.3353068105362461  0.9154004301553939  0.4279613252245744
  0.3390391192157536  0.5781107604273547  0.7539365555893685
  0.8293204298137068  0.5849376878056516  0.4185936640756123
  0.4997107965013566  0.5870704884219815  0.4219935334714131
  0.1675847895979441  0.1513801143542289 -0.0067148844649924
  0.3366146962071576  0.5884813704728322  0.2510763287591281
  0.5813355174107320  0.5110129381171606  0.2538892660182311
  0.9262257036215140 -0.0118345287830269  0.5841290491805261
  0.8400376091473913  0.2563268413623761  0.0748530682368994
  0.5925845155551138  0.1653792160232223  0.4266755005948648
  0.9098129576140275  0.8238264385181161  0.0935223272618291
  0.5110785886178160  0.3203937457267978  0.3457939828226642
  0.0854189522762039  0.7389507305662723  0.3221441441963926
  0.2450202855397644  0.8313799105713980  0.4124165621713114
  0.0109160571379113  0.5872767442896480  0.5826420956008986
  0.2398192243410356  0.7483102921223901  0.6804604206543496
  0.0860173317622670  0.9177126739794308  0.4990242140098374
  0.0878441841812030  0.7557195013389627  0.0091069394891435
  0.1571026395607475  0.3276300469952520  0.3333672395536477
  0.6678086604176633  0.3227676931700403  0.3383851775985081
  0.9111796798845916  0.3444614760893945  0.9186540605710981
  0.1702984123673228  0.5023271030540229  0.4975075848749092
  0.8335854024764789  0.8191656497002394 -0.0036999062848822
  0.7451611092514931  0.9079647286203779  0.4945285580733538
  0.5865351052028143 -0.0032810294138721  0.7480748908082629
  0.8302674602824477  0.0088201937183560  0.0080964344196466
  0.8336271585447923  0.0874351888995467  0.2565335019335279
  0.3262587361562783  0.7412420675999322  0.2545962212282833
  0.9115451145806228  0.2529691324441412  0.3311921091301043
  0.4922211145659992  0.8415601718076711  0.6562041066474825
  0.0881742248398810  0.8277769275530037  0.2435575303240622
  0.6683144214779977  0.1599926125701699  0.0165986993217722
  0.8299950210458267  0.7343974188479003  0.9197239776192851
  0.3278495701968770  0.1716807611587398  0.1567081656521092
  0.4248194910713008  0.6763390683291211  0.7519086660215700
  0.3327745524599202  0.7590937892415006  0.9118086923598954
  0.8361401531539350  0.1559122886598875  0.8325281344406069
 -0.0034845693272350  0.1770376870916101  0.3290135960937779
  0.1614801805202315  0.0761883843643767  0.4093289510182014
  0.3365221347335856  0.9233819872660273  0.2423755477392328
  0.9104877470318511  0.5018735435791644  0.0886235003740279
  0.9135858781921210  0.5840257330810886  0.8326105113844976
  0.4151122460390883  0.0917334482524572  0.8390176984503408
  0.3369881564291016  0.6760365965460482  0.6821138970301638
  0.3374794004492488  0.3275398503579815  0.8282589544104867
  0.8288490413647943  0.1535344635334653  0.0138964496568784
  0.8997131945116944  0.2504647104752525  0.8489071770730416
  0.8461234902054325 -0.0092485849922963  0.4900615535124063
  0.6633368268458761  0.8362054919717764  0.3225542274587256
  0.9135831569149684  0.5052037338781934  0.7443742212772153
  0.4047630470180244  0.1054416627701220  0.3370106966929688
  0.3366957862846963  0.8378397222967372 -0.0005178874182665
  0.9121069699052098  0.4330795080415466  0.6541861191667941
  0.4997490333039580  0.1743744618177609  0.3352693247159151
  0.4892908962800722  0.8382401906511177  0.0079727510305533
  0.5937192081744025  0.0802049643214482  0.4957815099069463
  0.0053774034110174  0.8365839807886578  0.6745541526895416
  0.5028728894221378  0.8313680588412558  0.3304724324001763
  0.4154241777272907 -0.0084502415127243  0.0831285619270149
  0.1629085414024931  0.1698095679355721  0.6822628901445128
  0.4232962267639873  0.6686327540076036  0.2580447328007375
  0.3329158693688509  0.5924560348043694  0.5943767276400999
 -0.0059872334266936  0.8253134712412935  0.1712488646021017
  0.6773759675619079  0.5896313585502544  0.4189218008917068
  0.0041855256276822  0.2502473052746464  0.0803522224458151
  0.2560090778442771  0.0815523837912510  0.6819152521634041
  0.0070817916641172  0.2524218114702048  0.4276637372229168
  0.3409258065970638  0.8315727454427927  0.1590170895091456
  0.0798452323709165  0.3534468101429044  0.5866923038466932