Co Mo Ni 
 1.0000000000000000
    22.7690000000000019    0.0000000000000000    0.0000000000000000
     0.0000000000000000   22.7690000000000019    0.0000000000000000
     0.0000000000000000    0.0000000000000000   22.7690000000000019
 Co  Mo  Ni 
 188 532 144
Cartesian
  1.8974166666666668  0.0000000000000000  9.4870833333333344
  1.8974166666666668  0.0000000000000000 13.2819166666666657
  0.0000000000000000  0.0000000000000000 15.1793333333333340
  0.0000000000000000  0.0000000000000000 18.9741666666666653
  1.8974166666666668  1.8974166666666668 18.9741666666666653
  0.0000000000000000  5.6922500000000005  1.8974166666666668
  1.8974166666666668  5.6922500000000005  0.0000000000000000
  0.0000000000000000  5.6922500000000005 13.2819166666666657
  1.8974166666666668  3.7948333333333335 17.0767500000000005
  0.0000000000000000  7.5896666666666670  0.0000000000000000
  1.8974166666666668  9.4870833333333344  3.7948333333333335
  0.0000000000000000  7.5896666666666670  7.5896666666666670
  1.8974166666666668  7.5896666666666670  9.4870833333333344
  0.0000000000000000  7.5896666666666670 15.1793333333333340
  1.8974166666666668  7.5896666666666670 17.0767500000000005
  1.8974166666666668 13.2819166666666657  3.7948333333333335
  0.0000000000000000 11.3844999999999992  7.5896666666666670
  0.0000000000000000 13.2819166666666657 13.2819166666666657
  1.8974166666666668 13.2819166666666657 11.3844999999999992
  0.0000000000000000 13.2819166666666657 17.0767500000000005
  0.0000000000000000 11.3844999999999992 18.9741666666666653
  0.0000000000000000 13.2819166666666657 20.8715833333333336
  0.0000000000000000 15.1793333333333340  0.0000000000000000
  0.0000000000000000 17.0767500000000005  1.8974166666666668
  1.8974166666666668 17.0767500000000005  0.0000000000000000
  0.0000000000000000 15.1793333333333340  3.7948333333333335
  1.8974166666666668 15.1793333333333340  9.4870833333333344
  0.0000000000000000 17.0767500000000005 13.2819166666666657
  1.8974166666666668 17.0767500000000005 15.1793333333333340
  1.8974166666666668 17.0767500000000005 18.9741666666666653
  0.0000000000000000 18.9741666666666653  3.7948333333333335
  0.0000000000000000 20.8715833333333336  5.6922500000000005
  1.8974166666666668 18.9741666666666653  9.4870833333333344
  0.0000000000000000 18.9741666666666653 15.1793333333333340
  1.8974166666666668 18.9741666666666653 20.8715833333333336
  3.7948333333333335  0.0000000000000000  0.0000000000000000
  3.7948333333333335  1.8974166666666668  1.8974166666666668
  5.6922500000000005  0.0000000000000000  9.4870833333333344
  5.6922500000000005  0.0000000000000000 13.2819166666666657
  3.7948333333333335  5.6922500000000005  1.8974166666666668
  3.7948333333333335  5.6922500000000005  5.6922500000000005
  3.7948333333333335  5.6922500000000005  9.4870833333333344
  5.6922500000000005  3.7948333333333335 13.2819166666666657
  5.6922500000000005  5.6922500000000005 15.1793333333333340
  5.6922500000000005  5.6922500000000005 18.9741666666666653
  3.7948333333333335  9.4870833333333344  1.8974166666666668
  5.6922500000000005  7.5896666666666670  5.6922500000000005
  5.6922500000000005  9.4870833333333344  3.7948333333333335
  3.7948333333333335  7.5896666666666670  7.5896666666666670
  3.7948333333333335  9.4870833333333344 13.2819166666666657
  3.7948333333333335 13.2819166666666657  5.6922500000000005
  5.6922500000000005 13.2819166666666657  3.7948333333333335
  3.7948333333333335 13.2819166666666657 17.0767500000000005
  5.6922500000000005 11.3844999999999992 17.0767500000000005
  3.7948333333333335 17.0767500000000005  9.4870833333333344
  5.6922500000000005 15.1793333333333340  9.4870833333333344
  5.6922500000000005 17.0767500000000005  7.5896666666666670
  3.7948333333333335 15.1793333333333340 11.3844999999999992
  5.6922500000000005 17.0767500000000005 11.3844999999999992
  3.7948333333333335 20.8715833333333336  5.6922500000000005
  5.6922500000000005 20.8715833333333336  7.5896666666666670
  3.7948333333333335 18.9741666666666653 11.3844999999999992
  3.7948333333333335 20.8715833333333336 17.0767500000000005
  9.4870833333333344  1.8974166666666668 15.1793333333333340
  9.4870833333333344  0.0000000000000000 20.8715833333333336
  9.4870833333333344  1.8974166666666668 18.9741666666666653
  7.5896666666666670  3.7948333333333335  3.7948333333333335
  9.4870833333333344  3.7948333333333335  5.6922500000000005
  7.5896666666666670  5.6922500000000005 17.0767500000000005
  9.4870833333333344  3.7948333333333335 17.0767500000000005
  7.5896666666666670  7.5896666666666670  0.0000000000000000
  9.4870833333333344  7.5896666666666670  1.8974166666666668
  7.5896666666666670  9.4870833333333344  5.6922500000000005
  7.5896666666666670  7.5896666666666670  7.5896666666666670
  9.4870833333333344  7.5896666666666670  9.4870833333333344
  9.4870833333333344  9.4870833333333344 11.3844999999999992
  7.5896666666666670  7.5896666666666670 18.9741666666666653
  9.4870833333333344  7.5896666666666670 20.8715833333333336
  9.4870833333333344  9.4870833333333344 18.9741666666666653
  7.5896666666666670 11.3844999999999992  0.0000000000000000
  7.5896666666666670 11.3844999999999992  3.7948333333333335
  7.5896666666666670 11.3844999999999992  7.5896666666666670
  7.5896666666666670 13.2819166666666657  9.4870833333333344
  9.4870833333333344 11.3844999999999992  9.4870833333333344
  7.5896666666666670 11.3844999999999992 18.9741666666666653
  9.4870833333333344 11.3844999999999992 20.8715833333333336
  9.4870833333333344 13.2819166666666657 18.9741666666666653
  7.5896666666666670 15.1793333333333340  3.7948333333333335
  9.4870833333333344 17.0767500000000005  3.7948333333333335
  7.5896666666666670 17.0767500000000005  9.4870833333333344
  9.4870833333333344 17.0767500000000005  7.5896666666666670
  7.5896666666666670 15.1793333333333340 11.3844999999999992
  9.4870833333333344 18.9741666666666653  1.8974166666666668
  9.4870833333333344 18.9741666666666653  5.6922500000000005
  7.5896666666666670 18.9741666666666653  7.5896666666666670
  7.5896666666666670 20.8715833333333336 13.2819166666666657
  9.4870833333333344 20.8715833333333336 11.3844999999999992
  9.4870833333333344 18.9741666666666653 17.0767500000000005
 13.2819166666666657  0.0000000000000000  1.8974166666666668
 11.3844999999999992  0.0000000000000000  3.7948333333333335
 13.2819166666666657  0.0000000000000000 17.0767500000000005
 13.2819166666666657  1.8974166666666668 15.1793333333333340
 13.2819166666666657  3.7948333333333335  1.8974166666666668
 11.3844999999999992  3.7948333333333335  7.5896666666666670
 13.2819166666666657  5.6922500000000005  7.5896666666666670
 11.3844999999999992  5.6922500000000005 13.2819166666666657
 13.2819166666666657  3.7948333333333335 13.2819166666666657
 11.3844999999999992  5.6922500000000005 17.0767500000000005
 11.3844999999999992  3.7948333333333335 18.9741666666666653
 13.2819166666666657  3.7948333333333335 20.8715833333333336
 13.2819166666666657  9.4870833333333344  3.7948333333333335
 13.2819166666666657  7.5896666666666670  9.4870833333333344
 13.2819166666666657 11.3844999999999992  9.4870833333333344
 13.2819166666666657 13.2819166666666657  7.5896666666666670
 11.3844999999999992 13.2819166666666657 13.2819166666666657
 13.2819166666666657 11.3844999999999992 17.0767500000000005
 13.2819166666666657 13.2819166666666657 18.9741666666666653
 11.3844999999999992 15.1793333333333340  0.0000000000000000
 11.3844999999999992 15.1793333333333340 11.3844999999999992
 13.2819166666666657 17.0767500000000005 11.3844999999999992
 13.2819166666666657 17.0767500000000005 15.1793333333333340
 11.3844999999999992 15.1793333333333340 18.9741666666666653
 11.3844999999999992 17.0767500000000005 20.8715833333333336
 13.2819166666666657 15.1793333333333340 20.8715833333333336
 13.2819166666666657 18.9741666666666653  9.4870833333333344
 11.3844999999999992 18.9741666666666653 11.3844999999999992
 15.1793333333333340  0.0000000000000000  0.0000000000000000
 15.1793333333333340  0.0000000000000000  3.7948333333333335
 15.1793333333333340  1.8974166666666668 17.0767500000000005
 17.0767500000000005  0.0000000000000000 17.0767500000000005
 17.0767500000000005  3.7948333333333335 17.0767500000000005
 17.0767500000000005  5.6922500000000005 18.9741666666666653
 17.0767500000000005  7.5896666666666670  1.8974166666666668
 17.0767500000000005  7.5896666666666670  5.6922500000000005
 15.1793333333333340  7.5896666666666670  7.5896666666666670
 15.1793333333333340  7.5896666666666670 11.3844999999999992
 15.1793333333333340  9.4870833333333344 17.0767500000000005
 17.0767500000000005  7.5896666666666670 17.0767500000000005
 17.0767500000000005  9.4870833333333344 15.1793333333333340
 17.0767500000000005 13.2819166666666657  0.0000000000000000
 17.0767500000000005 11.3844999999999992 13.2819166666666657
 17.0767500000000005 13.2819166666666657 11.3844999999999992
 15.1793333333333340 11.3844999999999992 15.1793333333333340
 17.0767500000000005 11.3844999999999992 17.0767500000000005
 15.1793333333333340 17.0767500000000005  1.8974166666666668
 15.1793333333333340 17.0767500000000005  5.6922500000000005
 15.1793333333333340 17.0767500000000005 13.2819166666666657
 15.1793333333333340 15.1793333333333340 15.1793333333333340
 15.1793333333333340 15.1793333333333340 18.9741666666666653
 17.0767500000000005 15.1793333333333340 20.8715833333333336
 17.0767500000000005 17.0767500000000005 18.9741666666666653
 17.0767500000000005 18.9741666666666653  1.8974166666666668
 17.0767500000000005 18.9741666666666653  5.6922500000000005
 15.1793333333333340 20.8715833333333336 13.2819166666666657
 17.0767500000000005 20.8715833333333336 11.3844999999999992
 15.1793333333333340 18.9741666666666653 15.1793333333333340
 17.0767500000000005 18.9741666666666653 17.0767500000000005
 17.0767500000000005 20.8715833333333336 18.9741666666666653
 18.9741666666666653  1.8974166666666668  9.4870833333333344
 20.8715833333333336  1.8974166666666668 11.3844999999999992
 18.9741666666666653  0.0000000000000000 15.1793333333333340
 18.9741666666666653  1.8974166666666668 20.8715833333333336
 20.8715833333333336  1.8974166666666668 18.9741666666666653
 18.9741666666666653  5.6922500000000005  1.8974166666666668
 20.8715833333333336  3.7948333333333335  5.6922500000000005
 20.8715833333333336  5.6922500000000005  3.7948333333333335
 20.8715833333333336  5.6922500000000005  7.5896666666666670
 18.9741666666666653  3.7948333333333335 11.3844999999999992
 20.8715833333333336  3.7948333333333335 17.0767500000000005
 18.9741666666666653  7.5896666666666670  0.0000000000000000
 18.9741666666666653  9.4870833333333344  9.4870833333333344
 20.8715833333333336  7.5896666666666670 17.0767500000000005
 20.8715833333333336 11.3844999999999992 13.2819166666666657
 20.8715833333333336 11.3844999999999992 17.0767500000000005
 18.9741666666666653 17.0767500000000005  1.8974166666666668
 20.8715833333333336 17.0767500000000005  3.7948333333333335
 18.9741666666666653 17.0767500000000005 13.2819166666666657
 18.9741666666666653 15.1793333333333340 15.1793333333333340
 18.9741666666666653 15.1793333333333340 18.9741666666666653
 18.9741666666666653 17.0767500000000005 20.8715833333333336
 20.8715833333333336 17.0767500000000005 18.9741666666666653
 18.9741666666666653 20.8715833333333336  9.4870833333333344
 20.8715833333333336 20.8715833333333336  7.5896666666666670
 18.9741666666666653 20.8715833333333336 13.2819166666666657
 20.8715833333333336 18.9741666666666653 13.2819166666666657
 18.9741666666666653 20.8715833333333336 17.0767500000000005
 20.8715833333333336 20.8715833333333336 15.1793333333333340
 18.9741666666666653 18.9741666666666653 18.9741666666666653
  3.7948333333333335  0.0000000000000000 18.9741666666666653
  7.5896666666666670  9.4870833333333344 17.0767500000000005
  3.7948333333333335 11.3844999999999992 15.1793333333333340
  0.0000000000000000  9.4870833333333344  9.4870833333333344
  7.5896666666666670 17.0767500000000005  1.8974166666666668
 15.1793333333333340  9.4870833333333344 13.2819166666666657
 20.8715833333333336  0.0000000000000000  9.4870833333333344
  9.4870833333333344  1.8974166666666668  3.7948333333333335
 11.3844999999999992 18.9741666666666653 18.9741666666666653
 17.0767500000000005 17.0767500000000005  3.7948333333333335
 15.1793333333333340 11.3844999999999992  7.5896666666666670
 15.1793333333333340  0.0000000000000000  7.5896666666666670
 20.8715833333333336  3.7948333333333335  1.8974166666666668
  1.8974166666666668  3.7948333333333335  9.4870833333333344
 13.2819166666666657 17.0767500000000005  7.5896666666666670
 11.3844999999999992 20.8715833333333336  1.8974166666666668
  7.5896666666666670 18.9741666666666653  3.7948333333333335
 13.2819166666666657 15.1793333333333340  9.4870833333333344
  7.5896666666666670  7.5896666666666670  3.7948333333333335
 15.1793333333333340  1.8974166666666668 20.8715833333333336
  5.6922500000000005 11.3844999999999992  9.4870833333333344
 15.1793333333333340  3.7948333333333335  0.0000000000000000
 17.0767500000000005  3.7948333333333335  1.8974166666666668
  0.0000000000000000  0.0000000000000000  7.5896666666666670
  0.0000000000000000  1.8974166666666668  9.4870833333333344
 18.9741666666666653 11.3844999999999992  0.0000000000000000
 18.9741666666666653  9.4870833333333344 13.2819166666666657
 11.3844999999999992 11.3844999999999992  0.0000000000000000
  7.5896666666666670  5.6922500000000005  9.4870833333333344
 17.0767500000000005  5.6922500000000005 15.1793333333333340
 15.1793333333333340 18.9741666666666653  3.7948333333333335
 11.3844999999999992 18.9741666666666653  3.7948333333333335
 11.3844999999999992  9.4870833333333344  9.4870833333333344
 13.2819166666666657  1.8974166666666668  3.7948333333333335
 17.0767500000000005  0.0000000000000000 20.8715833333333336
 20.8715833333333336 17.0767500000000005 11.3844999999999992
  9.4870833333333344  1.8974166666666668  0.0000000000000000
  5.6922500000000005  0.0000000000000000  1.8974166666666668
 11.3844999999999992  0.0000000000000000  7.5896666666666670
  0.0000000000000000  0.0000000000000000  0.0000000000000000
 20.8715833333333336  1.8974166666666668 15.1793333333333340
 18.9741666666666653 20.8715833333333336 20.8715833333333336
 11.3844999999999992  7.5896666666666670  3.7948333333333335
 11.3844999999999992  0.0000000000000000 15.1793333333333340
 20.8715833333333336  5.6922500000000005  0.0000000000000000
  7.5896666666666670 15.1793333333333340 18.9741666666666653
 18.9741666666666653  5.6922500000000005 20.8715833333333336
 20.8715833333333336  3.7948333333333335 20.8715833333333336
 17.0767500000000005  0.0000000000000000 13.2819166666666657
 11.3844999999999992  1.8974166666666668 13.2819166666666657
  9.4870833333333344  3.7948333333333335  9.4870833333333344
  3.7948333333333335 13.2819166666666657 20.8715833333333336
  5.6922500000000005 15.1793333333333340 20.8715833333333336
 15.1793333333333340  1.8974166666666668  5.6922500000000005
  1.8974166666666668 13.2819166666666657  0.0000000000000000
  9.4870833333333344 20.8715833333333336  0.0000000000000000
 11.3844999999999992 18.9741666666666653 15.1793333333333340
  9.4870833333333344  5.6922500000000005  3.7948333333333335
  9.4870833333333344 20.8715833333333336  7.5896666666666670
  7.5896666666666670  0.0000000000000000  0.0000000000000000
 17.0767500000000005  1.8974166666666668 15.1793333333333340
  0.0000000000000000 15.1793333333333340 18.9741666666666653
  0.0000000000000000  0.0000000000000000  3.7948333333333335
 20.8715833333333336 13.2819166666666657 15.1793333333333340
 13.2819166666666657  5.6922500000000005  3.7948333333333335
  0.0000000000000000 18.9741666666666653 11.3844999999999992
  1.8974166666666668 17.0767500000000005  3.7948333333333335
  5.6922500000000005  9.4870833333333344 18.9741666666666653
  1.8974166666666668  3.7948333333333335 13.2819166666666657
 17.0767500000000005  5.6922500000000005  7.5896666666666670
 17.0767500000000005  9.4870833333333344  0.0000000000000000
 17.0767500000000005 20.8715833333333336  3.7948333333333335
 20.8715833333333336 13.2819166666666657  3.7948333333333335
  5.6922500000000005  5.6922500000000005  3.7948333333333335
  7.5896666666666670 11.3844999999999992 11.3844999999999992
 18.9741666666666653  5.6922500000000005  5.6922500000000005
  3.7948333333333335  7.5896666666666670 11.3844999999999992
  3.7948333333333335  1.8974166666666668  5.6922500000000005
 17.0767500000000005 18.9741666666666653  9.4870833333333344
  3.7948333333333335 18.9741666666666653 15.1793333333333340
  7.5896666666666670 20.8715833333333336  1.8974166666666668
  9.4870833333333344  3.7948333333333335  1.8974166666666668
  0.0000000000000000  3.7948333333333335 15.1793333333333340
  3.7948333333333335  5.6922500000000005 17.0767500000000005
  9.4870833333333344 15.1793333333333340  1.8974166666666668
 13.2819166666666657  0.0000000000000000 20.8715833333333336
 11.3844999999999992 15.1793333333333340  3.7948333333333335
 15.1793333333333340  9.4870833333333344  5.6922500000000005
  7.5896666666666670 17.0767500000000005  5.6922500000000005
 18.9741666666666653  1.8974166666666668  5.6922500000000005
  9.4870833333333344 15.1793333333333340  5.6922500000000005
 20.8715833333333336  7.5896666666666670  9.4870833333333344
 17.0767500000000005 13.2819166666666657  7.5896666666666670
 15.1793333333333340 13.2819166666666657 17.0767500000000005
 15.1793333333333340  3.7948333333333335  7.5896666666666670
  7.5896666666666670  0.0000000000000000 11.3844999999999992
 11.3844999999999992 13.2819166666666657 17.0767500000000005
 18.9741666666666653 17.0767500000000005  9.4870833333333344
  5.6922500000000005 11.3844999999999992 13.2819166666666657
 18.9741666666666653 13.2819166666666657 20.8715833333333336
  9.4870833333333344  3.7948333333333335 20.8715833333333336
 13.2819166666666657  1.8974166666666668 11.3844999999999992
  9.4870833333333344 11.3844999999999992 13.2819166666666657
  3.7948333333333335 17.0767500000000005  1.8974166666666668
 11.3844999999999992 17.0767500000000005 13.2819166666666657
 17.0767500000000005 17.0767500000000005 11.3844999999999992
  7.5896666666666670 15.1793333333333340  7.5896666666666670
 20.8715833333333336  9.4870833333333344  7.5896666666666670
 18.9741666666666653  0.0000000000000000  3.7948333333333335
  1.8974166666666668 13.2819166666666657 18.9741666666666653
 15.1793333333333340 18.9741666666666653 18.9741666666666653
 18.9741666666666653 17.0767500000000005 17.0767500000000005
  1.8974166666666668  1.8974166666666668  7.5896666666666670
 20.8715833333333336  1.8974166666666668  7.5896666666666670
  1.8974166666666668  7.5896666666666670 13.2819166666666657
  0.0000000000000000 11.3844999999999992  0.0000000000000000
 17.0767500000000005  5.6922500000000005  3.7948333333333335
  0.0000000000000000  5.6922500000000005 20.8715833333333336
 13.2819166666666657 20.8715833333333336  7.5896666666666670
  9.4870833333333344  0.0000000000000000 17.0767500000000005
  7.5896666666666670  0.0000000000000000 18.9741666666666653
 17.0767500000000005 20.8715833333333336 15.1793333333333340
 18.9741666666666653  7.5896666666666670 18.9741666666666653
 11.3844999999999992  7.5896666666666670  0.0000000000000000
  3.7948333333333335 17.0767500000000005 17.0767500000000005
 18.9741666666666653  1.8974166666666668 17.0767500000000005
  9.4870833333333344 17.0767500000000005 11.3844999999999992
  5.6922500000000005 20.8715833333333336  3.7948333333333335
 13.2819166666666657 18.9741666666666653  1.8974166666666668
  9.4870833333333344 18.9741666666666653  9.4870833333333344
  9.4870833333333344 20.8715833333333336 18.9741666666666653
  3.7948333333333335 15.1793333333333340  3.7948333333333335
  7.5896666666666670  5.6922500000000005  5.6922500000000005
  5.6922500000000005  7.5896666666666670 13.2819166666666657
 20.8715833333333336  7.5896666666666670 13.2819166666666657
 15.1793333333333340  1.8974166666666668  1.8974166666666668
 20.8715833333333336 20.8715833333333336  0.0000000000000000
  9.4870833333333344 20.8715833333333336 15.1793333333333340
 18.9741666666666653 13.2819166666666657 13.2819166666666657
  0.0000000000000000 17.0767500000000005  9.4870833333333344
  3.7948333333333335 20.8715833333333336 13.2819166666666657
 13.2819166666666657 20.8715833333333336 15.1793333333333340
  9.4870833333333344  9.4870833333333344 15.1793333333333340
  9.4870833333333344 15.1793333333333340 20.8715833333333336
 11.3844999999999992 20.8715833333333336  9.4870833333333344
  0.0000000000000000 11.3844999999999992  3.7948333333333335
 18.9741666666666653  5.6922500000000005 17.0767500000000005
  0.0000000000000000  3.7948333333333335  3.7948333333333335
 17.0767500000000005  7.5896666666666670 13.2819166666666657
  9.4870833333333344  0.0000000000000000  1.8974166666666668
 13.2819166666666657 18.9741666666666653 13.2819166666666657
 17.0767500000000005 11.3844999999999992  1.8974166666666668
  1.8974166666666668 20.8715833333333336  0.0000000000000000
  1.8974166666666668  1.8974166666666668 15.1793333333333340
 11.3844999999999992 18.9741666666666653  0.0000000000000000
  5.6922500000000005 11.3844999999999992  5.6922500000000005
  5.6922500000000005 18.9741666666666653  1.8974166666666668
  1.8974166666666668 20.8715833333333336 18.9741666666666653
 17.0767500000000005  9.4870833333333344 18.9741666666666653
  3.7948333333333335 18.9741666666666653  7.5896666666666670
  9.4870833333333344 13.2819166666666657 11.3844999999999992
  9.4870833333333344  1.8974166666666668  7.5896666666666670
  0.0000000000000000 20.8715833333333336  1.8974166666666668
 13.2819166666666657  5.6922500000000005  0.0000000000000000
  5.6922500000000005 20.8715833333333336  0.0000000000000000
  5.6922500000000005 18.9741666666666653 13.2819166666666657
  1.8974166666666668  0.0000000000000000 20.8715833333333336
 18.9741666666666653  0.0000000000000000  0.0000000000000000
  5.6922500000000005 13.2819166666666657  0.0000000000000000
 15.1793333333333340 17.0767500000000005 17.0767500000000005
 13.2819166666666657 13.2819166666666657 11.3844999999999992
  9.4870833333333344  1.8974166666666668 11.3844999999999992
  5.6922500000000005  3.7948333333333335  1.8974166666666668
 11.3844999999999992 20.8715833333333336  5.6922500000000005
 15.1793333333333340  5.6922500000000005 20.8715833333333336
  0.0000000000000000 11.3844999999999992 15.1793333333333340
  0.0000000000000000 15.1793333333333340 15.1793333333333340
 15.1793333333333340 15.1793333333333340  0.0000000000000000
  9.4870833333333344 18.9741666666666653 20.8715833333333336
  7.5896666666666670  1.8974166666666668 13.2819166666666657
 18.9741666666666653 15.1793333333333340  7.5896666666666670
 18.9741666666666653  5.6922500000000005  9.4870833333333344
 11.3844999999999992  0.0000000000000000 18.9741666666666653
 20.8715833333333336  0.0000000000000000 17.0767500000000005
  0.0000000000000000 11.3844999999999992 11.3844999999999992
  9.4870833333333344  9.4870833333333344  3.7948333333333335
 15.1793333333333340  9.4870833333333344 20.8715833333333336
  5.6922500000000005  0.0000000000000000 20.8715833333333336
  1.8974166666666668  5.6922500000000005 18.9741666666666653
 20.8715833333333336 18.9741666666666653 17.0767500000000005
 17.0767500000000005  5.6922500000000005  0.0000000000000000
  7.5896666666666670 15.1793333333333340  0.0000000000000000
 11.3844999999999992 11.3844999999999992 15.1793333333333340
  3.7948333333333335 11.3844999999999992 11.3844999999999992
 11.3844999999999992  7.5896666666666670 18.9741666666666653
 20.8715833333333336 15.1793333333333340  9.4870833333333344
  1.8974166666666668 11.3844999999999992  5.6922500000000005
  9.4870833333333344  5.6922500000000005 15.1793333333333340
  9.4870833333333344  9.4870833333333344  0.0000000000000000
 20.8715833333333336  9.4870833333333344  3.7948333333333335
 17.0767500000000005  3.7948333333333335 13.2819166666666657
 17.0767500000000005 15.1793333333333340  1.8974166666666668
 18.9741666666666653 18.9741666666666653  0.0000000000000000
 13.2819166666666657 15.1793333333333340 17.0767500000000005
 18.9741666666666653 18.9741666666666653 11.3844999999999992
 18.9741666666666653 13.2819166666666657  9.4870833333333344
  1.8974166666666668 18.9741666666666653 17.0767500000000005
  3.7948333333333335  3.7948333333333335  0.0000000000000000
  7.5896666666666670  9.4870833333333344  9.4870833333333344
 11.3844999999999992 15.1793333333333340 15.1793333333333340
  0.0000000000000000  3.7948333333333335 11.3844999999999992
  9.4870833333333344 17.0767500000000005 15.1793333333333340
  7.5896666666666670 20.8715833333333336 20.8715833333333336
 11.3844999999999992  9.4870833333333344 17.0767500000000005
  7.5896666666666670  1.8974166666666668  9.4870833333333344
  7.5896666666666670  9.4870833333333344 20.8715833333333336
 13.2819166666666657  0.0000000000000000  5.6922500000000005
  9.4870833333333344 15.1793333333333340 13.2819166666666657
 18.9741666666666653  1.8974166666666668 13.2819166666666657
 18.9741666666666653  0.0000000000000000 18.9741666666666653
  7.5896666666666670  1.8974166666666668  5.6922500000000005
  7.5896666666666670 13.2819166666666657  1.8974166666666668
  7.5896666666666670  1.8974166666666668  1.8974166666666668
  0.0000000000000000 13.2819166666666657  5.6922500000000005
 20.8715833333333336  9.4870833333333344 15.1793333333333340
  7.5896666666666670 13.2819166666666657  5.6922500000000005
  5.6922500000000005  7.5896666666666670 20.8715833333333336
 17.0767500000000005 15.1793333333333340  5.6922500000000005
  0.0000000000000000  7.5896666666666670 18.9741666666666653
 13.2819166666666657 11.3844999999999992  1.8974166666666668
 20.8715833333333336  5.6922500000000005 11.3844999999999992
  9.4870833333333344  7.5896666666666670 13.2819166666666657
 20.8715833333333336 13.2819166666666657 18.9741666666666653
 15.1793333333333340 11.3844999999999992  0.0000000000000000
  1.8974166666666668 18.9741666666666653 13.2819166666666657
  9.4870833333333344 17.0767500000000005  0.0000000000000000
 11.3844999999999992  5.6922500000000005  1.8974166666666668
  3.7948333333333335 13.2819166666666657  1.8974166666666668
 17.0767500000000005  3.7948333333333335 20.8715833333333336
 15.1793333333333340 20.8715833333333336  9.4870833333333344
 18.9741666666666653  9.4870833333333344  5.6922500000000005
 13.2819166666666657  0.0000000000000000 13.2819166666666657
 13.2819166666666657 13.2819166666666657  3.7948333333333335
  5.6922500000000005  9.4870833333333344 11.3844999999999992
  9.4870833333333344  9.4870833333333344  7.5896666666666670
 11.3844999999999992 11.3844999999999992  7.5896666666666670
 13.2819166666666657  7.5896666666666670 20.8715833333333336
 13.2819166666666657 17.0767500000000005  0.0000000000000000
  1.8974166666666668 13.2819166666666657  7.5896666666666670
 11.3844999999999992  7.5896666666666670 15.1793333333333340
 17.0767500000000005  1.8974166666666668  7.5896666666666670
  0.0000000000000000 18.9741666666666653  0.0000000000000000
 17.0767500000000005 11.3844999999999992  9.4870833333333344
 17.0767500000000005 13.2819166666666657 18.9741666666666653
  3.7948333333333335  7.5896666666666670  0.0000000000000000
 11.3844999999999992  1.8974166666666668  5.6922500000000005
  0.0000000000000000 20.8715833333333336 20.8715833333333336
  1.8974166666666668  9.4870833333333344 15.1793333333333340
  1.8974166666666668  9.4870833333333344  7.5896666666666670
 17.0767500000000005  0.0000000000000000  1.8974166666666668
  1.8974166666666668 11.3844999999999992 20.8715833333333336
 15.1793333333333340  5.6922500000000005  1.8974166666666668
 20.8715833333333336 18.9741666666666653  9.4870833333333344
 13.2819166666666657  1.8974166666666668 18.9741666666666653
  1.8974166666666668  7.5896666666666670  1.8974166666666668
 15.1793333333333340  5.6922500000000005 17.0767500000000005
  9.4870833333333344  5.6922500000000005  0.0000000000000000
  0.0000000000000000  7.5896666666666670 11.3844999999999992
 15.1793333333333340  5.6922500000000005  9.4870833333333344
  7.5896666666666670  5.6922500000000005 13.2819166666666657
  7.5896666666666670  5.6922500000000005  1.8974166666666668
  0.0000000000000000  1.8974166666666668 13.2819166666666657
 13.2819166666666657  9.4870833333333344 11.3844999999999992
 13.2819166666666657 11.3844999999999992 20.8715833333333336
  3.7948333333333335 17.0767500000000005 20.8715833333333336
 20.8715833333333336  0.0000000000000000  5.6922500000000005
  5.6922500000000005  9.4870833333333344 15.1793333333333340
 15.1793333333333340  9.4870833333333344  1.8974166666666668
  1.8974166666666668 17.0767500000000005  7.5896666666666670
 17.0767500000000005  3.7948333333333335  5.6922500000000005
  0.0000000000000000  7.5896666666666670  3.7948333333333335
  9.4870833333333344 18.9741666666666653 13.2819166666666657
  1.8974166666666668 15.1793333333333340 20.8715833333333336
  0.0000000000000000 13.2819166666666657  9.4870833333333344
  5.6922500000000005 20.8715833333333336 11.3844999999999992
 18.9741666666666653 11.3844999999999992 15.1793333333333340
  9.4870833333333344 13.2819166666666657  3.7948333333333335
  1.8974166666666668  3.7948333333333335 20.8715833333333336
 15.1793333333333340 11.3844999999999992 18.9741666666666653
  3.7948333333333335  9.4870833333333344  5.6922500000000005
 11.3844999999999992 20.8715833333333336 20.8715833333333336
 20.8715833333333336 15.1793333333333340  1.8974166666666668
 15.1793333333333340 18.9741666666666653 11.3844999999999992
 13.2819166666666657  7.5896666666666670  1.8974166666666668
  1.8974166666666668 18.9741666666666653  1.8974166666666668
  9.4870833333333344 15.1793333333333340  9.4870833333333344
  7.5896666666666670 18.9741666666666653 11.3844999999999992
 13.2819166666666657 17.0767500000000005 18.9741666666666653
 11.3844999999999992 18.9741666666666653  7.5896666666666670