Mo Cu 
 1.0000000000000000
    22.9800000000000004    0.0000000000000000    0.0000000000000000
     0.0000000000000000   22.9800000000000004    0.0000000000000000
     0.0000000000000000    0.0000000000000000   22.9800000000000004
 Mo  Cu 
 540 324
Cartesian
  0.0000000000000000  0.0000000000000000  0.0000000000000000
  0.0000000000000000  1.9150000000000000  1.9150000000000000
  1.9150000000000000  1.9150000000000000  0.0000000000000000
  0.0000000000000000  0.0000000000000000  3.8300000000000001
  0.0000000000000000  1.9150000000000000  5.7450000000000001
  1.9150000000000000  1.9150000000000000  3.8300000000000001
  0.0000000000000000  1.9150000000000000  9.5749999999999993
  1.9150000000000000  0.0000000000000000  9.5749999999999993
  0.0000000000000000  0.0000000000000000 11.4899999999999984
  0.0000000000000000  1.9150000000000000 13.4050000000000011
  0.0000000000000000  0.0000000000000000 15.3200000000000003
  1.9150000000000000  1.9150000000000000 15.3200000000000003
  0.0000000000000000  0.0000000000000000 19.1499999999999986
  1.9150000000000000  0.0000000000000000 21.0649999999999977
  1.9150000000000000  1.9150000000000000 19.1499999999999986
  0.0000000000000000  3.8300000000000001  0.0000000000000000
  1.9150000000000000  3.8300000000000001  1.9150000000000000
  1.9150000000000000  5.7450000000000001  0.0000000000000000
  0.0000000000000000  3.8300000000000001  3.8300000000000001
  0.0000000000000000  5.7450000000000001  5.7450000000000001
  1.9150000000000000  3.8300000000000001  5.7450000000000001
  1.9150000000000000  5.7450000000000001  3.8300000000000001
  0.0000000000000000  3.8300000000000001  7.6600000000000001
  1.9150000000000000  3.8300000000000001  9.5749999999999993
  1.9150000000000000  5.7450000000000001  7.6600000000000001
  0.0000000000000000  3.8300000000000001 11.4899999999999984
  0.0000000000000000  5.7450000000000001 13.4050000000000011
  1.9150000000000000  5.7450000000000001 11.4899999999999984
  0.0000000000000000  3.8300000000000001 15.3200000000000003
  0.0000000000000000  5.7450000000000001 17.2349999999999994
  1.9150000000000000  3.8300000000000001 17.2349999999999994
  0.0000000000000000  3.8300000000000001 19.1499999999999986
  0.0000000000000000  5.7450000000000001 21.0649999999999977
  0.0000000000000000  7.6600000000000001  0.0000000000000000
  1.9150000000000000  7.6600000000000001  1.9150000000000000
  1.9150000000000000  9.5749999999999993  0.0000000000000000
  0.0000000000000000  7.6600000000000001  3.8300000000000001
  1.9150000000000000  7.6600000000000001  5.7450000000000001
  0.0000000000000000  7.6600000000000001  7.6600000000000001
  1.9150000000000000  7.6600000000000001  9.5749999999999993
  1.9150000000000000  9.5749999999999993  7.6600000000000001
  0.0000000000000000  7.6600000000000001 11.4899999999999984
  0.0000000000000000  9.5749999999999993 13.4050000000000011
  1.9150000000000000  9.5749999999999993 11.4899999999999984
  0.0000000000000000  7.6600000000000001 15.3200000000000003
  0.0000000000000000  9.5749999999999993 17.2349999999999994
  0.0000000000000000  7.6600000000000001 19.1499999999999986
  1.9150000000000000  7.6600000000000001 21.0649999999999977
  1.9150000000000000  9.5749999999999993 19.1499999999999986
  0.0000000000000000 11.4899999999999984  0.0000000000000000
  1.9150000000000000 13.4050000000000011  0.0000000000000000
  0.0000000000000000 13.4050000000000011  5.7450000000000001
  1.9150000000000000 11.4899999999999984  5.7450000000000001
  1.9150000000000000 13.4050000000000011  3.8300000000000001
  0.0000000000000000 11.4899999999999984  7.6600000000000001
  1.9150000000000000 11.4899999999999984  9.5749999999999993
  1.9150000000000000 13.4050000000000011  7.6600000000000001
  0.0000000000000000 11.4899999999999984 11.4899999999999984
  1.9150000000000000 13.4050000000000011 11.4899999999999984
  0.0000000000000000 11.4899999999999984 15.3200000000000003
  0.0000000000000000 13.4050000000000011 17.2349999999999994
  1.9150000000000000 11.4899999999999984 17.2349999999999994
  0.0000000000000000 11.4899999999999984 19.1499999999999986
  1.9150000000000000 11.4899999999999984 21.0649999999999977
  0.0000000000000000 15.3200000000000003  0.0000000000000000
  0.0000000000000000 17.2349999999999994  1.9150000000000000
  1.9150000000000000 17.2349999999999994  0.0000000000000000
  0.0000000000000000 15.3200000000000003  3.8300000000000001
  0.0000000000000000 17.2349999999999994  5.7450000000000001
  1.9150000000000000 15.3200000000000003  5.7450000000000001
  1.9150000000000000 17.2349999999999994  3.8300000000000001
  1.9150000000000000 17.2349999999999994  7.6600000000000001
  0.0000000000000000 17.2349999999999994 13.4050000000000011
  1.9150000000000000 15.3200000000000003 13.4050000000000011
  0.0000000000000000 15.3200000000000003 15.3200000000000003
  0.0000000000000000 17.2349999999999994 17.2349999999999994
  1.9150000000000000 15.3200000000000003 21.0649999999999977
  0.0000000000000000 19.1499999999999986  0.0000000000000000
  1.9150000000000000 19.1499999999999986  1.9150000000000000
  0.0000000000000000 21.0649999999999977  5.7450000000000001
  1.9150000000000000 19.1499999999999986  5.7450000000000001
  1.9150000000000000 21.0649999999999977  3.8300000000000001
  0.0000000000000000 19.1499999999999986  7.6600000000000001
  0.0000000000000000 21.0649999999999977  9.5749999999999993
  1.9150000000000000 21.0649999999999977  7.6600000000000001
  0.0000000000000000 19.1499999999999986 11.4899999999999984
  1.9150000000000000 21.0649999999999977 11.4899999999999984
  0.0000000000000000 19.1499999999999986 15.3200000000000003
  1.9150000000000000 19.1499999999999986 17.2349999999999994
  0.0000000000000000 19.1499999999999986 19.1499999999999986
  0.0000000000000000 21.0649999999999977 21.0649999999999977
  1.9150000000000000 19.1499999999999986 21.0649999999999977
  1.9150000000000000 21.0649999999999977 19.1499999999999986
  3.8300000000000001  0.0000000000000000  0.0000000000000000
  5.7450000000000001  0.0000000000000000  1.9150000000000000
  5.7450000000000001  1.9150000000000000  0.0000000000000000
  3.8300000000000001  0.0000000000000000  3.8300000000000001
  3.8300000000000001  1.9150000000000000  5.7450000000000001
  5.7450000000000001  1.9150000000000000  3.8300000000000001
  3.8300000000000001  0.0000000000000000  7.6600000000000001
  5.7450000000000001  0.0000000000000000  9.5749999999999993
  5.7450000000000001  1.9150000000000000  7.6600000000000001
  3.8300000000000001  1.9150000000000000 13.4050000000000011
  5.7450000000000001  1.9150000000000000 11.4899999999999984
  3.8300000000000001  0.0000000000000000 15.3200000000000003
  3.8300000000000001  1.9150000000000000 17.2349999999999994
  5.7450000000000001  0.0000000000000000 17.2349999999999994
  5.7450000000000001  1.9150000000000000 15.3200000000000003
  3.8300000000000001  0.0000000000000000 19.1499999999999986
  3.8300000000000001  1.9150000000000000 21.0649999999999977
  5.7450000000000001  1.9150000000000000 19.1499999999999986
  5.7450000000000001  5.7450000000000001  0.0000000000000000
  3.8300000000000001  5.7450000000000001  5.7450000000000001
  5.7450000000000001  3.8300000000000001  5.7450000000000001
  5.7450000000000001  5.7450000000000001  3.8300000000000001
  3.8300000000000001  3.8300000000000001  7.6600000000000001
  5.7450000000000001  3.8300000000000001  9.5749999999999993
  5.7450000000000001  5.7450000000000001  7.6600000000000001
  3.8300000000000001  3.8300000000000001 11.4899999999999984
  5.7450000000000001  3.8300000000000001 13.4050000000000011
  5.7450000000000001  5.7450000000000001 15.3200000000000003
  3.8300000000000001  3.8300000000000001 19.1499999999999986
  3.8300000000000001  5.7450000000000001 21.0649999999999977
  3.8300000000000001  7.6600000000000001  0.0000000000000000
  3.8300000000000001  9.5749999999999993  1.9150000000000000
  5.7450000000000001  9.5749999999999993  0.0000000000000000
  3.8300000000000001  7.6600000000000001  3.8300000000000001
  3.8300000000000001  9.5749999999999993  5.7450000000000001
  5.7450000000000001  7.6600000000000001  5.7450000000000001
  5.7450000000000001  9.5749999999999993  3.8300000000000001
  3.8300000000000001  7.6600000000000001  7.6600000000000001
  5.7450000000000001  9.5749999999999993  7.6600000000000001
  5.7450000000000001  7.6600000000000001 17.2349999999999994
  5.7450000000000001  9.5749999999999993 15.3200000000000003
  3.8300000000000001  9.5749999999999993 21.0649999999999977
  3.8300000000000001 11.4899999999999984  0.0000000000000000
  3.8300000000000001 13.4050000000000011  1.9150000000000000
  5.7450000000000001 11.4899999999999984  1.9150000000000000
  3.8300000000000001 11.4899999999999984  3.8300000000000001
  3.8300000000000001 13.4050000000000011  5.7450000000000001
  5.7450000000000001 11.4899999999999984  5.7450000000000001
  3.8300000000000001 13.4050000000000011  9.5749999999999993
  5.7450000000000001 11.4899999999999984  9.5749999999999993
  5.7450000000000001 13.4050000000000011  7.6600000000000001
  3.8300000000000001 11.4899999999999984 11.4899999999999984
  5.7450000000000001 11.4899999999999984 13.4050000000000011
  5.7450000000000001 13.4050000000000011 11.4899999999999984
  3.8300000000000001 11.4899999999999984 15.3200000000000003
  3.8300000000000001 13.4050000000000011 17.2349999999999994
  5.7450000000000001 11.4899999999999984 17.2349999999999994
  5.7450000000000001 13.4050000000000011 15.3200000000000003
  3.8300000000000001 13.4050000000000011 21.0649999999999977
  5.7450000000000001 11.4899999999999984 21.0649999999999977
  5.7450000000000001 15.3200000000000003  1.9150000000000000
  3.8300000000000001 15.3200000000000003  3.8300000000000001
  5.7450000000000001 15.3200000000000003  5.7450000000000001
  5.7450000000000001 17.2349999999999994  3.8300000000000001
  3.8300000000000001 15.3200000000000003  7.6600000000000001
  5.7450000000000001 15.3200000000000003  9.5749999999999993
  3.8300000000000001 15.3200000000000003 11.4899999999999984
  3.8300000000000001 17.2349999999999994 17.2349999999999994
  5.7450000000000001 17.2349999999999994 15.3200000000000003
  3.8300000000000001 15.3200000000000003 19.1499999999999986
  3.8300000000000001 17.2349999999999994 21.0649999999999977
  5.7450000000000001 15.3200000000000003 21.0649999999999977
  3.8300000000000001 19.1499999999999986  0.0000000000000000
  3.8300000000000001 21.0649999999999977  1.9150000000000000
  5.7450000000000001 19.1499999999999986  1.9150000000000000
  5.7450000000000001 21.0649999999999977  0.0000000000000000
  3.8300000000000001 19.1499999999999986  3.8300000000000001
  5.7450000000000001 19.1499999999999986  5.7450000000000001
  5.7450000000000001 21.0649999999999977  3.8300000000000001
  3.8300000000000001 19.1499999999999986  7.6600000000000001
  5.7450000000000001 19.1499999999999986  9.5749999999999993
  3.8300000000000001 19.1499999999999986 11.4899999999999984
  3.8300000000000001 21.0649999999999977 13.4050000000000011
  5.7450000000000001 19.1499999999999986 13.4050000000000011
  5.7450000000000001 21.0649999999999977 11.4899999999999984
  3.8300000000000001 19.1499999999999986 15.3200000000000003
  3.8300000000000001 21.0649999999999977 17.2349999999999994
  5.7450000000000001 19.1499999999999986 17.2349999999999994
  5.7450000000000001 19.1499999999999986 21.0649999999999977
  7.6600000000000001  0.0000000000000000  0.0000000000000000
  7.6600000000000001  1.9150000000000000  1.9150000000000000
  9.5749999999999993  1.9150000000000000  0.0000000000000000
  7.6600000000000001  0.0000000000000000  3.8300000000000001
  7.6600000000000001  1.9150000000000000  5.7450000000000001
  9.5749999999999993  0.0000000000000000  5.7450000000000001
  7.6600000000000001  0.0000000000000000  7.6600000000000001
  7.6600000000000001  1.9150000000000000  9.5749999999999993
  9.5749999999999993  0.0000000000000000  9.5749999999999993
  9.5749999999999993  1.9150000000000000  7.6600000000000001
  7.6600000000000001  1.9150000000000000 13.4050000000000011
  9.5749999999999993  0.0000000000000000 13.4050000000000011
  9.5749999999999993  1.9150000000000000 11.4899999999999984
  7.6600000000000001  1.9150000000000000 17.2349999999999994
  9.5749999999999993  0.0000000000000000 17.2349999999999994
  7.6600000000000001  0.0000000000000000 19.1499999999999986
  7.6600000000000001  1.9150000000000000 21.0649999999999977
  9.5749999999999993  0.0000000000000000 21.0649999999999977
  7.6600000000000001  3.8300000000000001  0.0000000000000000
  9.5749999999999993  3.8300000000000001  1.9150000000000000
  9.5749999999999993  5.7450000000000001  0.0000000000000000
  7.6600000000000001  3.8300000000000001  3.8300000000000001
  7.6600000000000001  3.8300000000000001  7.6600000000000001
  7.6600000000000001  5.7450000000000001  9.5749999999999993
  9.5749999999999993  3.8300000000000001  9.5749999999999993
  7.6600000000000001  3.8300000000000001 11.4899999999999984
  7.6600000000000001  5.7450000000000001 13.4050000000000011
  7.6600000000000001  3.8300000000000001 15.3200000000000003
  7.6600000000000001  5.7450000000000001 17.2349999999999994
  9.5749999999999993  5.7450000000000001 15.3200000000000003
  7.6600000000000001  3.8300000000000001 19.1499999999999986
  7.6600000000000001  5.7450000000000001 21.0649999999999977
  9.5749999999999993  3.8300000000000001 21.0649999999999977
  9.5749999999999993  5.7450000000000001 19.1499999999999986
  7.6600000000000001  7.6600000000000001  0.0000000000000000
  7.6600000000000001  9.5749999999999993  1.9150000000000000
  9.5749999999999993  7.6600000000000001  1.9150000000000000
  9.5749999999999993  9.5749999999999993  0.0000000000000000
  9.5749999999999993  7.6600000000000001  5.7450000000000001
  9.5749999999999993  9.5749999999999993  3.8300000000000001
  7.6600000000000001  9.5749999999999993  9.5749999999999993
  9.5749999999999993  7.6600000000000001  9.5749999999999993
  9.5749999999999993  7.6600000000000001 13.4050000000000011
  7.6600000000000001  7.6600000000000001 15.3200000000000003
  9.5749999999999993  7.6600000000000001 17.2349999999999994
  7.6600000000000001  7.6600000000000001 19.1499999999999986
  7.6600000000000001  9.5749999999999993 21.0649999999999977
  9.5749999999999993  7.6600000000000001 21.0649999999999977
  9.5749999999999993  9.5749999999999993 19.1499999999999986
  7.6600000000000001 13.4050000000000011  1.9150000000000000
  9.5749999999999993 11.4899999999999984  1.9150000000000000
  9.5749999999999993 13.4050000000000011  0.0000000000000000
  7.6600000000000001 11.4899999999999984  3.8300000000000001
  9.5749999999999993 11.4899999999999984  5.7450000000000001
  9.5749999999999993 13.4050000000000011  3.8300000000000001
  9.5749999999999993 13.4050000000000011  7.6600000000000001
  9.5749999999999993 11.4899999999999984 13.4050000000000011
  7.6600000000000001 13.4050000000000011 17.2349999999999994
  9.5749999999999993 13.4050000000000011 15.3200000000000003
  7.6600000000000001 11.4899999999999984 19.1499999999999986
  9.5749999999999993 11.4899999999999984 21.0649999999999977
  9.5749999999999993 13.4050000000000011 19.1499999999999986
  9.5749999999999993 15.3200000000000003  1.9150000000000000
  9.5749999999999993 17.2349999999999994  0.0000000000000000
  7.6600000000000001 17.2349999999999994  5.7450000000000001
  7.6600000000000001 17.2349999999999994  9.5749999999999993
  9.5749999999999993 15.3200000000000003  9.5749999999999993
  9.5749999999999993 17.2349999999999994  7.6600000000000001
  7.6600000000000001 15.3200000000000003 11.4899999999999984
  7.6600000000000001 17.2349999999999994 13.4050000000000011
  9.5749999999999993 17.2349999999999994 11.4899999999999984
  7.6600000000000001 17.2349999999999994 17.2349999999999994
  9.5749999999999993 15.3200000000000003 17.2349999999999994
  7.6600000000000001 15.3200000000000003 19.1499999999999986
  9.5749999999999993 17.2349999999999994 19.1499999999999986
  7.6600000000000001 19.1499999999999986  0.0000000000000000
  9.5749999999999993 21.0649999999999977  0.0000000000000000
  7.6600000000000001 19.1499999999999986  3.8300000000000001
  9.5749999999999993 19.1499999999999986  5.7450000000000001
  9.5749999999999993 21.0649999999999977  3.8300000000000001
  7.6600000000000001 19.1499999999999986  7.6600000000000001
  7.6600000000000001 21.0649999999999977  9.5749999999999993
  9.5749999999999993 21.0649999999999977  7.6600000000000001
  7.6600000000000001 19.1499999999999986 11.4899999999999984
  7.6600000000000001 21.0649999999999977 13.4050000000000011
  7.6600000000000001 21.0649999999999977 17.2349999999999994
  9.5749999999999993 19.1499999999999986 17.2349999999999994
  9.5749999999999993 21.0649999999999977 15.3200000000000003
  7.6600000000000001 19.1499999999999986 19.1499999999999986
  7.6600000000000001 21.0649999999999977 21.0649999999999977
  9.5749999999999993 19.1499999999999986 21.0649999999999977
  9.5749999999999993 21.0649999999999977 19.1499999999999986
 11.4899999999999984  0.0000000000000000  0.0000000000000000
 11.4899999999999984  1.9150000000000000  1.9150000000000000
 13.4050000000000011  0.0000000000000000  1.9150000000000000
 13.4050000000000011  1.9150000000000000  0.0000000000000000
 13.4050000000000011  1.9150000000000000  3.8300000000000001
 11.4899999999999984  1.9150000000000000  9.5749999999999993
 13.4050000000000011  0.0000000000000000  9.5749999999999993
 11.4899999999999984  0.0000000000000000 11.4899999999999984
 11.4899999999999984  1.9150000000000000 13.4050000000000011
 13.4050000000000011  0.0000000000000000 13.4050000000000011
 13.4050000000000011  1.9150000000000000 11.4899999999999984
 11.4899999999999984  0.0000000000000000 15.3200000000000003
 11.4899999999999984  1.9150000000000000 17.2349999999999994
 13.4050000000000011  1.9150000000000000 15.3200000000000003
 11.4899999999999984  1.9150000000000000 21.0649999999999977
 11.4899999999999984  3.8300000000000001  0.0000000000000000
 11.4899999999999984  5.7450000000000001  1.9150000000000000
 13.4050000000000011  3.8300000000000001  1.9150000000000000
 11.4899999999999984  3.8300000000000001  3.8300000000000001
 13.4050000000000011  3.8300000000000001  5.7450000000000001
 13.4050000000000011  5.7450000000000001  3.8300000000000001
 11.4899999999999984  3.8300000000000001  7.6600000000000001
 13.4050000000000011  5.7450000000000001  7.6600000000000001
 11.4899999999999984  3.8300000000000001 11.4899999999999984
 13.4050000000000011  3.8300000000000001 13.4050000000000011
 11.4899999999999984  3.8300000000000001 15.3200000000000003
 11.4899999999999984  5.7450000000000001 17.2349999999999994
 13.4050000000000011  5.7450000000000001 15.3200000000000003
 11.4899999999999984  3.8300000000000001 19.1499999999999986
 13.4050000000000011  3.8300000000000001 21.0649999999999977
 13.4050000000000011  5.7450000000000001 19.1499999999999986
 11.4899999999999984  7.6600000000000001  0.0000000000000000
 11.4899999999999984  9.5749999999999993  1.9150000000000000
 13.4050000000000011  7.6600000000000001  1.9150000000000000
 13.4050000000000011  9.5749999999999993  0.0000000000000000
 11.4899999999999984  7.6600000000000001  3.8300000000000001
 11.4899999999999984  9.5749999999999993  5.7450000000000001
 13.4050000000000011  9.5749999999999993  3.8300000000000001
 11.4899999999999984  7.6600000000000001  7.6600000000000001
 11.4899999999999984  9.5749999999999993  9.5749999999999993
 13.4050000000000011  7.6600000000000001  9.5749999999999993
 13.4050000000000011  9.5749999999999993  7.6600000000000001
 11.4899999999999984  7.6600000000000001 11.4899999999999984
 11.4899999999999984  9.5749999999999993 13.4050000000000011
 13.4050000000000011  7.6600000000000001 13.4050000000000011
 13.4050000000000011  9.5749999999999993 11.4899999999999984
 11.4899999999999984  7.6600000000000001 15.3200000000000003
 11.4899999999999984  9.5749999999999993 17.2349999999999994
 13.4050000000000011  9.5749999999999993 15.3200000000000003
 11.4899999999999984  7.6600000000000001 19.1499999999999986
 11.4899999999999984  9.5749999999999993 21.0649999999999977
 13.4050000000000011  9.5749999999999993 19.1499999999999986
 13.4050000000000011 11.4899999999999984  1.9150000000000000
 11.4899999999999984 13.4050000000000011  5.7450000000000001
 13.4050000000000011 11.4899999999999984  5.7450000000000001
 13.4050000000000011 13.4050000000000011  7.6600000000000001
 11.4899999999999984 11.4899999999999984 11.4899999999999984
 11.4899999999999984 13.4050000000000011 13.4050000000000011
 13.4050000000000011 11.4899999999999984 13.4050000000000011
 13.4050000000000011 13.4050000000000011 11.4899999999999984
 13.4050000000000011 11.4899999999999984 17.2349999999999994
 11.4899999999999984 11.4899999999999984 19.1499999999999986
 11.4899999999999984 13.4050000000000011 21.0649999999999977
 13.4050000000000011 11.4899999999999984 21.0649999999999977
 13.4050000000000011 13.4050000000000011 19.1499999999999986
 11.4899999999999984 15.3200000000000003  0.0000000000000000
 11.4899999999999984 17.2349999999999994  1.9150000000000000
 13.4050000000000011 17.2349999999999994  0.0000000000000000
 11.4899999999999984 15.3200000000000003  3.8300000000000001
 11.4899999999999984 15.3200000000000003  7.6600000000000001
 11.4899999999999984 17.2349999999999994  9.5749999999999993
 11.4899999999999984 15.3200000000000003 11.4899999999999984
 11.4899999999999984 17.2349999999999994 13.4050000000000011
 13.4050000000000011 15.3200000000000003 13.4050000000000011
 13.4050000000000011 17.2349999999999994 11.4899999999999984
 13.4050000000000011 17.2349999999999994 15.3200000000000003
 13.4050000000000011 15.3200000000000003 21.0649999999999977
 13.4050000000000011 17.2349999999999994 19.1499999999999986
 11.4899999999999984 19.1499999999999986  0.0000000000000000
 11.4899999999999984 21.0649999999999977  1.9150000000000000
 13.4050000000000011 21.0649999999999977  0.0000000000000000
 11.4899999999999984 19.1499999999999986  3.8300000000000001
 11.4899999999999984 21.0649999999999977  5.7450000000000001
 11.4899999999999984 19.1499999999999986  7.6600000000000001
 11.4899999999999984 21.0649999999999977  9.5749999999999993
 11.4899999999999984 19.1499999999999986 11.4899999999999984
 13.4050000000000011 19.1499999999999986 13.4050000000000011
 13.4050000000000011 21.0649999999999977 11.4899999999999984
 13.4050000000000011 19.1499999999999986 17.2349999999999994
 11.4899999999999984 19.1499999999999986 19.1499999999999986
 13.4050000000000011 19.1499999999999986 21.0649999999999977
 13.4050000000000011 21.0649999999999977 19.1499999999999986
 15.3200000000000003  0.0000000000000000  0.0000000000000000
 15.3200000000000003  1.9150000000000000  1.9150000000000000
 17.2349999999999994  0.0000000000000000  1.9150000000000000
 17.2349999999999994  1.9150000000000000  0.0000000000000000
 15.3200000000000003  1.9150000000000000  5.7450000000000001
 17.2349999999999994  1.9150000000000000  3.8300000000000001
 15.3200000000000003  0.0000000000000000  7.6600000000000001
 17.2349999999999994  1.9150000000000000  7.6600000000000001
 15.3200000000000003  0.0000000000000000 11.4899999999999984
 15.3200000000000003  1.9150000000000000 13.4050000000000011
 17.2349999999999994  0.0000000000000000 13.4050000000000011
 17.2349999999999994  1.9150000000000000 11.4899999999999984
 15.3200000000000003  1.9150000000000000 17.2349999999999994
 17.2349999999999994  1.9150000000000000 19.1499999999999986
 15.3200000000000003  3.8300000000000001  3.8300000000000001
 15.3200000000000003  5.7450000000000001  5.7450000000000001
 17.2349999999999994  5.7450000000000001  3.8300000000000001
 15.3200000000000003  3.8300000000000001  7.6600000000000001
 17.2349999999999994  3.8300000000000001  9.5749999999999993
 15.3200000000000003  5.7450000000000001 17.2349999999999994
 15.3200000000000003  3.8300000000000001 19.1499999999999986
 17.2349999999999994  3.8300000000000001 21.0649999999999977
 17.2349999999999994  5.7450000000000001 19.1499999999999986
 15.3200000000000003  7.6600000000000001  0.0000000000000000
 15.3200000000000003  9.5749999999999993  1.9150000000000000
 17.2349999999999994  7.6600000000000001  1.9150000000000000
 17.2349999999999994  9.5749999999999993  0.0000000000000000
 15.3200000000000003  7.6600000000000001  3.8300000000000001
 15.3200000000000003  9.5749999999999993  5.7450000000000001
 17.2349999999999994  7.6600000000000001  5.7450000000000001
 15.3200000000000003  7.6600000000000001  7.6600000000000001
 17.2349999999999994  7.6600000000000001  9.5749999999999993
 17.2349999999999994  9.5749999999999993  7.6600000000000001
 17.2349999999999994  7.6600000000000001 13.4050000000000011
 15.3200000000000003  7.6600000000000001 15.3200000000000003
 17.2349999999999994  7.6600000000000001 17.2349999999999994
 17.2349999999999994  9.5749999999999993 15.3200000000000003
 15.3200000000000003  7.6600000000000001 19.1499999999999986
 15.3200000000000003  9.5749999999999993 21.0649999999999977
 17.2349999999999994  9.5749999999999993 19.1499999999999986
 15.3200000000000003 13.4050000000000011  1.9150000000000000
 17.2349999999999994 11.4899999999999984  1.9150000000000000
 17.2349999999999994 13.4050000000000011  0.0000000000000000
 15.3200000000000003 11.4899999999999984  3.8300000000000001
 15.3200000000000003 13.4050000000000011  5.7450000000000001
 17.2349999999999994 13.4050000000000011  3.8300000000000001
 15.3200000000000003 11.4899999999999984  7.6600000000000001
 17.2349999999999994 13.4050000000000011  7.6600000000000001
 15.3200000000000003 11.4899999999999984 11.4899999999999984
 17.2349999999999994 11.4899999999999984 13.4050000000000011
 17.2349999999999994 13.4050000000000011 11.4899999999999984
 15.3200000000000003 11.4899999999999984 15.3200000000000003
 15.3200000000000003 13.4050000000000011 17.2349999999999994
 17.2349999999999994 13.4050000000000011 15.3200000000000003
 15.3200000000000003 11.4899999999999984 19.1499999999999986
 15.3200000000000003 13.4050000000000011 21.0649999999999977
 15.3200000000000003 15.3200000000000003  0.0000000000000000
 17.2349999999999994 17.2349999999999994  0.0000000000000000
 15.3200000000000003 15.3200000000000003  3.8300000000000001
 17.2349999999999994 15.3200000000000003  5.7450000000000001
 15.3200000000000003 15.3200000000000003  7.6600000000000001
 15.3200000000000003 17.2349999999999994  9.5749999999999993
 17.2349999999999994 15.3200000000000003  9.5749999999999993
 17.2349999999999994 17.2349999999999994  7.6600000000000001
 15.3200000000000003 15.3200000000000003 11.4899999999999984
 17.2349999999999994 15.3200000000000003 13.4050000000000011
 15.3200000000000003 15.3200000000000003 15.3200000000000003
 15.3200000000000003 17.2349999999999994 17.2349999999999994
 17.2349999999999994 15.3200000000000003 17.2349999999999994
 17.2349999999999994 17.2349999999999994 15.3200000000000003
 15.3200000000000003 15.3200000000000003 19.1499999999999986
 15.3200000000000003 17.2349999999999994 21.0649999999999977
 15.3200000000000003 19.1499999999999986  0.0000000000000000
 15.3200000000000003 21.0649999999999977  1.9150000000000000
 17.2349999999999994 21.0649999999999977  0.0000000000000000
 15.3200000000000003 21.0649999999999977  9.5749999999999993
 17.2349999999999994 21.0649999999999977  7.6600000000000001
 15.3200000000000003 19.1499999999999986 11.4899999999999984
 15.3200000000000003 21.0649999999999977 13.4050000000000011
 17.2349999999999994 19.1499999999999986 13.4050000000000011
 15.3200000000000003 19.1499999999999986 15.3200000000000003
 17.2349999999999994 19.1499999999999986 17.2349999999999994
 15.3200000000000003 19.1499999999999986 19.1499999999999986
 15.3200000000000003 21.0649999999999977 21.0649999999999977
 17.2349999999999994 19.1499999999999986 21.0649999999999977
 17.2349999999999994 21.0649999999999977 19.1499999999999986
 19.1499999999999986  1.9150000000000000  1.9150000000000000
 21.0649999999999977  1.9150000000000000  0.0000000000000000
 19.1499999999999986  0.0000000000000000  3.8300000000000001
 19.1499999999999986  1.9150000000000000  5.7450000000000001
 21.0649999999999977  0.0000000000000000  5.7450000000000001
 21.0649999999999977  1.9150000000000000  3.8300000000000001
 19.1499999999999986  0.0000000000000000  7.6600000000000001
 19.1499999999999986  1.9150000000000000  9.5749999999999993
 19.1499999999999986  0.0000000000000000 11.4899999999999984
 19.1499999999999986  1.9150000000000000 13.4050000000000011
 19.1499999999999986  0.0000000000000000 15.3200000000000003
 21.0649999999999977  1.9150000000000000 15.3200000000000003
 19.1499999999999986  1.9150000000000000 21.0649999999999977
 21.0649999999999977  0.0000000000000000 21.0649999999999977
 21.0649999999999977  1.9150000000000000 19.1499999999999986
 19.1499999999999986  3.8300000000000001  0.0000000000000000
 19.1499999999999986  5.7450000000000001  1.9150000000000000
 21.0649999999999977  3.8300000000000001  1.9150000000000000
 21.0649999999999977  5.7450000000000001  0.0000000000000000
 21.0649999999999977  5.7450000000000001  3.8300000000000001
 19.1499999999999986  5.7450000000000001  9.5749999999999993
 21.0649999999999977  5.7450000000000001  7.6600000000000001
 19.1499999999999986  5.7450000000000001 13.4050000000000011
 21.0649999999999977  5.7450000000000001 11.4899999999999984
 19.1499999999999986  3.8300000000000001 15.3200000000000003
 21.0649999999999977  3.8300000000000001 17.2349999999999994
 21.0649999999999977  5.7450000000000001 15.3200000000000003
 19.1499999999999986  3.8300000000000001 19.1499999999999986
 21.0649999999999977  5.7450000000000001 19.1499999999999986
 19.1499999999999986  7.6600000000000001  0.0000000000000000
 19.1499999999999986  9.5749999999999993  1.9150000000000000
 21.0649999999999977  9.5749999999999993  0.0000000000000000
 19.1499999999999986  7.6600000000000001  3.8300000000000001
 19.1499999999999986  9.5749999999999993  5.7450000000000001
 21.0649999999999977  7.6600000000000001  5.7450000000000001