Mo Fe Ni                                
   1.00000000000000     
    24.0757706943760894    0.0048003173746422   -0.0185154369424588
     0.0070524347037126   20.4763617760688703    0.0511640843609792
    -0.0178714859751412    0.0491079409884078   23.7325580840286214
   Mo   Fe   Ni
   548   158   158
Direct
 -0.0038412282541464 -0.0110802790991817 -0.0017137507249817
  0.0093937461674188  0.0722068520319001  0.0814462465861670
  0.0889468323268790 -0.0117475034865929  0.0891434020141479
  0.0059176908666235  0.0091934345367737  0.1775509343630867
 -0.0110238145188297  0.0972918106894094  0.2592806824564063
  0.0761465309939577  0.0136402993211120  0.2658611885780143
 -0.0076775621699217 -0.0077508771107789  0.3387023523903012
 -0.0083324336809403  0.0799181838989071  0.4195925266561147
  0.0851557154109269 -0.0127589429048454  0.4049353805767880
  0.0816063744575002  0.0992242329581202  0.3488464473335701
 -0.0003505052661342 -0.0139802876710006  0.4932988188795982
  0.0028047998764904  0.0740819651151944  0.5719805551774108
  0.0929214206582308 -0.0027064876467385  0.5825914253504049
  0.0967241109541996  0.0713527282589548  0.4885273657667654
 -0.0004246431103493  0.0054788269539482  0.6643386677929682
  0.0005489498157660  0.0949350775150014  0.7441788230004314
  0.0897370513913341  0.0131317243227404  0.7423868005653047
  0.0947288788980445  0.0943320476277572  0.6588381299967474
 -0.0023058211884300 -0.0000450480175847  0.8260588125424918
  0.0868091335884244 -0.0062265254067900  0.9141769006111883
  0.0860214930002697  0.0817744476242040  0.8348615317564231
  0.0107767624443673  0.1562269618359816 -0.0074320904066368
  0.0819316787111354  0.1758998486649128  0.0774325556903396
  0.0775054047184924  0.2585203347081538 -0.0081212645472449
 -0.0016936747783167  0.1640132126936568  0.1588923847700421
 -0.0085897686562262  0.2462314265678807  0.2477431598903352
  0.0761389634685457  0.1740824228729696  0.2529072566395178
 -0.0109794145536677  0.1780201155858548  0.3467317537401191
  0.0872142808303239  0.1804850499693731  0.4296284161205632
  0.0756522285084868  0.2561942008087894  0.3392962161153160
  0.0007884447627963  0.1659683299779119  0.4934979696849691
  0.0045883083262432  0.2514976332403160  0.5726665087487347
  0.0027471358585802  0.1674170182027178  0.6547604271595243
 -0.0011367424375107  0.2454085792674857  0.7505385658845297
  0.0898009066123866  0.1671083741469208  0.7508575800273289
  0.0919123961930666  0.2421500176187278  0.6597480716036137
  0.0790500229948968  0.2430516743110637  0.8430500902378766
 -0.0015356139474130  0.4117712516973932  0.0786945343323217
  0.0801910714155160  0.3345441540937916  0.0825640271149038
  0.0731337553823709  0.3316157770667590  0.2477825550111539
  0.0792722884949330  0.3291318561113697  0.4228210021387958
  0.0872316442792373  0.4088612811471145  0.3291901623002651
  0.0016155399707004  0.3471304518934359  0.5006433478402352
  0.0931525867398121  0.3372003006516021  0.5813102331221491
  0.0040493566762402  0.3360858885889727  0.6599940829246240
  0.0073619509064990  0.4217284596561134  0.7534522578382568
  0.0828615142394020  0.3215806314625745  0.7497818149696572
  0.0924042964446986  0.4192902028261673  0.6635915962069913
 -0.0063955521125943  0.3392584682553117  0.8336463881313664
  0.0731462807199350  0.3424354706818467  0.9145704233594500
  0.0774807295846631  0.4973102370103593  0.0862262880871119
  0.0019546000527768  0.5712212393308521  0.2498713017874208
  0.0036404374209515  0.4881212819477782  0.3292851780415453
 -0.0030265492412124  0.5800408427553587  0.4124183293608535
  0.0864573806719939  0.5673794649352983  0.3353610307587345
  0.0048926961594147  0.5712726949196947  0.5778015931799397
  0.0907416219817034  0.4961098519897511  0.5749120332485547
  0.0805282394137016  0.5833477573451156  0.4865662940776829
  0.0061480919047252  0.4993886085703656  0.6678133155329152
  0.0072408902301612  0.5840746976564388  0.7501820419909891
  0.0867341312230972  0.5861421404602032  0.8372765610756316
  0.0084088127857341  0.7620747517717524  0.0845633657891895
  0.0831133642343851  0.6645558044436273  0.0760526759739503
  0.0806199440772161  0.7616669887009028 -0.0090209662399835
  0.0076457429684848  0.6644196188526001  0.1669632234392457
  0.0714570879265018  0.6638643168019319  0.2566425691794080
 -0.0060267872611964  0.7546998095415315  0.4146624038496904
  0.0764129337327155  0.6744974060703351  0.4071090797458802
 -0.0029948654827977  0.6732929429312010  0.5041626825818297
  0.0832420803957259  0.7545231970350219  0.5078044657108911
  0.0035219422052817  0.6653010780067383  0.6544388356095719
  0.0042365918654916  0.7400985538956669  0.7465251655383295
  0.0934628718945091  0.6656075306800082  0.7470942152509981
  0.0915475506940240  0.7517537740243244  0.6578344707498978
  0.0047733716056970  0.6673068048942721  0.8387777723578413
  0.0889067252225494  0.7429898530680192  0.8443045986040083
 -0.0021593598894447  0.8414464841084409 -0.0032128538161506
 -0.0018711386199899  0.9159027026245723  0.0919750668955385
  0.0868701289569391  0.9124518690161771 -0.0013072144938638
  0.0798401447979717  0.9093928789205096  0.1820127609405570
  0.0828310343111470  0.8331835537815684  0.4166047695048303
  0.0778689857363336  0.9009089081190941  0.3258799846039057
 -0.0036880101714139  0.8347549708546683  0.5066880610796246
 -0.0011996295562743  0.9211176440423393  0.5857924706058172
  0.0926667730123917  0.8439267676248251  0.5857393426102411
  0.0932107221690213  0.9164461305372801  0.4976759131901194
 -0.0022801748399465  0.8299919533382456  0.6660452230402978
  0.0875894100191137  0.9146165602547771  0.6768947856517624
 -0.0023554562807051  0.8268326690266034  0.8253351079512814
 -0.0049207468859207  0.9149882498564822  0.9074768696639847
  0.0869358771936165  0.8443268720851017  0.9050881768727151
  0.0868313375384493  0.9226033360019481  0.8170723717028244
  0.1593829693650955  0.0845907519606700  0.0787907741653702
  0.2460662146309723  0.0082668349157465  0.0861627510635916
  0.2561131025020036  0.0655267512490354 -0.0062899537621997
  0.1600764355860352  0.0173284864779603  0.1827957055381847
  0.1656297049200036  0.1045826941410027  0.2592042774237401
  0.2503481848766083  0.0070068001128954  0.2471380314152057
  0.2515046192323586  0.0975108302315456  0.1657108787338732
  0.1699196873110559 -0.0064888103535182  0.3296960949108029
  0.1831402180139328  0.0873892775475573  0.4074992281159024
  0.2617750178968625  0.0912081496834583  0.3289275379170722
  0.1817717670820982 -0.0020575488493715  0.4911682331552452
  0.1767499381422885  0.0895903672899801  0.5828822062658310
  0.2531912163462554  0.0922079379014340  0.5081997969577886
  0.1807893330308706  0.0017765332077017  0.6783362423022182
  0.2622955150055603  0.0904937706909517  0.6636948975827600
  0.1801568113416024  0.0059802429557673  0.8259193866808074
  0.1701806772229958  0.0699855899096871  0.9203898735769031
  0.1598965019802367  0.1659396105851746 -0.0108377004815905
  0.2508854988795319  0.1597411252028615  0.0689671884090776
  0.2479195010564898  0.2665133067021722  0.0006744367990506
  0.1616715610103259  0.1748403642845922  0.1586128703658117
  0.1625220816539805  0.2553424617205429  0.2440034370679026
  0.2559132673698820  0.1816577453468734  0.2467946577001391
  0.2541303304696615  0.2466722726898206  0.1519086819329605
  0.1689257189843990  0.1890922097801654  0.3380822409787752
  0.2526527979445640  0.1818508533717126  0.4215980792892007
  0.2552144301874766  0.2636395526337197  0.3350378852404950
  0.1741180370929668  0.2499755281437868  0.7560834863403316
  0.2599828403759020  0.1720646417489716  0.7537433281516509
  0.2539072522125776  0.2540919012703928  0.6711308133266053
  0.1743988444340797  0.1622719666919573  0.8454385675301230
  0.1684836669886627  0.2624406676934259  0.9160431258031403
  0.2537834874968687  0.1630264365967536  0.9207616756693163
  0.1663461693480255  0.4152135469272722  0.0785621573736401
  0.1646881800079468  0.3318826284422359  0.1578205908088565
  0.2493542715818214  0.3341899862025074  0.2417704334852787
  0.1616936499383419  0.4067963694828908  0.4180600303828058
  0.2431760955656811  0.4069346352296497  0.3297218987754434
  0.1751451740342718  0.3335756365554629  0.5050294332709266
  0.2458884067493301  0.3338034937473202  0.5919480082194435
  0.1669946131704607  0.4105569716270696  0.7492029267255592
  0.2476095492213667  0.4176199330450369  0.6757996244080393
  0.1702985612444403  0.3393202322323196  0.8355278451129111
  0.1620133399002864  0.4199257465710822  0.9187795543584834
  0.2530811306179309  0.3566460805053879  0.9220002591665422
  0.2566013449694627  0.4238004976991097  0.8290717035273838
  0.1655355896888855  0.5018862284541955  0.0026710246211613
  0.1570981365832596  0.4939474555798904  0.1661135481556331
  0.2401271974530553  0.4958585692657150  0.2415017486491083
  0.2425430005482613  0.5845408052132793  0.1578477704766744
  0.2406803421296513  0.4929072779874783  0.4184895518739236
  0.2390862468515900  0.5807860175423830  0.3335048928084161
  0.1607022992201883  0.5913277473565925  0.5805018000657300
  0.2465269318965037  0.5079724884565590  0.5807398016429600
  0.2454285332444542  0.5862036493730357  0.4918987853635023
  0.1640267459012382  0.5120865792772161  0.6730664491585111
  0.2519381826172117  0.5864371288403037  0.6710580219784877
  0.1647241932916766  0.4978289988058923  0.8304162626765553
  0.1642955928123963  0.5735617296701558  0.9181729267663109
  0.2497688185772637  0.5755051906396889  0.8303696058886044
  0.1610409619702394  0.6658839168803630 -0.0017124699495782
  0.2374875866837524  0.6663175004478759  0.0747665631227467
  0.1505352274007259  0.6644959591229187  0.1657352629195656
  0.1572805343650743  0.7478122537280351  0.2484548408282461
  0.2454721066234413  0.7398959184797909  0.1653383626672437
  0.1618029814238045  0.6648157318946278  0.3299086546825842
  0.1628721915072517  0.7486488929536258  0.4142025242468532
  0.2559794679324367  0.7348573721242189  0.3285342095634586
  0.1620690132827600  0.6683694476438018  0.4929552294046672
  0.2520134226092332  0.6644937173661274  0.5821112530740408
  0.2533329895897580  0.7402254899069490  0.4936882036177009
  0.1636854240785050  0.7558478243060706  0.7581037701554574
  0.2453040850372616  0.6689943724960339  0.7571158975198560
  0.2517466246482347  0.7409227573444556  0.6686720128458612
  0.2443476139866520  0.6618998226072085  0.9159679038446991
  0.1724335785725324  0.8323960531448747 -0.0070730598357710
  0.1740740737721951  0.9124832929323384  0.0908221828966006
  0.2508276493752945  0.8265885579635086  0.0792236445609420
  0.1614378390086394  0.8194373204897265  0.1654007999355306
  0.1645039257578557  0.9057483732885367  0.2477431273553278
  0.2481233980436901  0.9089113236243489  0.1762334799313162
  0.1672949248487913  0.8251143348827640  0.3285187977587206
  0.2538698982722864  0.8174540383277902  0.4102276606897490
  0.2548023465140120  0.9080298713906249  0.3316774449050470
  0.1843870050137703  0.9240085527786250  0.5851015627099392
  0.2475684921700212  0.8172141219751171  0.5794573960526834
  0.2515580478987425  0.9037712893105050  0.4862321663890201
  0.1745704759983885  0.8391062326668384  0.6706114661320811
  0.2509304184566934  0.8274001330564684  0.7546314481048166
  0.1801525793625795  0.9232490673417593  0.9129294403415430
  0.3419644306025353  0.0789899840647170  0.0830909659778641
  0.4207946626332833 -0.0158120804166932  0.0846119656013525
  0.4132953733657646  0.0676500065684506 -0.0074859968689373
  0.3384967795977538  0.0035077796823977  0.1715267155119567
  0.3436120385800487  0.0989385292406879  0.2446457174016891
  0.4201275738051654  0.0899636367736951  0.1658867391686626
  0.3353219629446025 -0.0090605503299423  0.3293062440154031
  0.3285777327314209  0.0887632825989246  0.4172625929396243
  0.4042791323122866  0.0860608038916281  0.3321661008814656
  0.3233376472606354 -0.0080329801429815  0.4985111528284942
  0.4118542859406608 -0.0084674990823264  0.5886519345798644
  0.4049344757299638  0.0726118504593196  0.5051088133440386
  0.3411427905300081  0.0811851735524971  0.7513797078091404
  0.4164305649752111  0.0852788646028487  0.6671390475939284
  0.3343130143972352 -0.0038622985803771  0.8318382143392667
  0.4153163838086258 -0.0214137435109658  0.9161754616080353
  0.4219033495457733  0.0873544014480716  0.8374092221693985
  0.3381999719682837  0.1628057959162416 -0.0087919831451917
  0.3369955026507833  0.2590825702436550  0.0707665162751704
  0.4143844843906601  0.2628361388885482 -0.0094966697537619
  0.3441531419246291  0.2630971636166177  0.2488964750402055
  0.4069746324504382  0.2566926644542322  0.1655892427924041
  0.3349341333960426  0.2559957024367844  0.4243288850528770
  0.4117601033297449  0.1673433964838823  0.4233457321210142
  0.3362858570493412  0.2631589129842098  0.5805139206483908
  0.4134618062772474  0.1712147545316919  0.5764827942355301
  0.3340994398707801  0.1707333930925764  0.8419426640601394
  0.3298848184100917  0.2646074005775715  0.9268136878181573
  0.4128324942682772  0.2470211392823558  0.8434513467999880
  0.4057213855603758  0.3575490448346851  0.0780357022706717
  0.3303747558764500  0.4171675203270124  0.2546233205729125
  0.4055717408539445  0.4055975568976389  0.1773702417338923
  0.3276705377053329  0.4251003167386035  0.4093256914736896
  0.4105972399546314  0.3374442327819189  0.4106814434072620
  0.4175045073106923  0.4339934645328121  0.3303043881991812
  0.3287787338493237  0.3497947796764256  0.5014505440738878
  0.3301432805736788  0.4239203617622208  0.5907814531278752
  0.4170505106716703  0.3444473678497924  0.5885057663841899
  0.4155110726060827  0.4245583379756501  0.4968942892942239
  0.4088936664483703  0.3337043864653672  0.7445081155690673
  0.3388501730259184  0.3391279506789388  0.8333876312321813
  0.3256296234270125  0.4920314567125580  0.0062039615756119
  0.4119503606898166  0.4856887268386806  0.0925883781340190
  0.4162253363000427  0.5863874482073685  0.0110440412233751
  0.3267738101700074  0.5849810818623392  0.2471825658524065
  0.4167555023443105  0.5073962652851688  0.2428021288229021
  0.4141743470350052  0.5859608007197322  0.1575711309767708
  0.3282029520236159  0.5138141291426119  0.3328777625654166
  0.3308367869609260  0.5781006566977143  0.4256887877077639
  0.3369096688474736  0.5805645454053890  0.5748346541464416
  0.4169164480643401  0.4973213502489416  0.5847685511155828
  0.3351970156997798  0.5060277966928068  0.6755850980797713
  0.4199874144873843  0.5807058318985687  0.6731107655289845
  0.3375007652616698  0.5017562834173841  0.8262227957431788
  0.3279965539998697  0.5840226917328805  0.9191437520949162
  0.4170796721553255  0.5218740627176378  0.9172673229921281
  0.3278620041589833  0.6600532425149553  0.0085370047519085
  0.4153009879083984  0.6782382734399933  0.0875763870546052
  0.4103716568843877  0.7518883830326916  0.0008100525313826
  0.3262681973080644  0.6635776556742575  0.1637300193955973
  0.4202915365216445  0.6530026383815865  0.2557749346837748
  0.4167037505840823  0.7408093887880691  0.1806892454733078
  0.4186878375462490  0.6601871366566824  0.4096551516789408
  0.4168306129392148  0.7443487799457602  0.3254102114286294
  0.3420566029737681  0.7432813372580250  0.5826705871831444
  0.4231734433178752  0.7371434067145873  0.4966286448333296
  0.3379505431606945  0.6603789292224808  0.6662626171176771
  0.4199864826064017  0.7460022436298466  0.6672768475156802
  0.3399280759071297  0.6670540766834276  0.8332589116249797
  0.3254539461151285  0.7449079176169783  0.9160922136156392
  0.3263311148642285  0.9185316578864762  0.0874748077151660
  0.4089122328626841  0.8299983377432141  0.0904667451743226
  0.4133160044990192  0.9016755810177359  0.0031271484634802
  0.3312482453212262  0.8135586019198849  0.1747982248155507
  0.3403890610578895  0.9068748259040545  0.2425031351473846
  0.3355183430840066  0.8255401205267727  0.3229692519050800
  0.4200888091484158  0.8223032079298584  0.4174267825128564
  0.4158904086950570  0.9088966399437689  0.3340892578993970
  0.3390937711993393  0.8245721143022969  0.4932752495115672
  0.3258921634123234  0.9103050214191953  0.5855455620338667
  0.4219445281883741  0.8452348366362972  0.5771179318936118
  0.3377490648758082  0.8289331611159749  0.6697050398149330
  0.3323801151463716  0.9199234033154222  0.7468415574484097
  0.4237297926842203  0.9140462912510767  0.6709823828110979
  0.3299362449688172  0.8229252232859574  0.8271055819542649
  0.3238262458371705  0.9061470954416627  0.9153706912113436
  0.4122583199814097  0.8268203330528170  0.9126674499914950
  0.4888525739986699  0.0886012132842272  0.0763100596965309
  0.5724335639849039  0.0106412269199230  0.0764019617344167
  0.4909599193136087  0.0909928628036680  0.2484382789833993
  0.5773889418745848  0.0022456313339047  0.2397967736607346
  0.5760765389093474  0.0948510467131106  0.1599036002500403
  0.4879501677903042  0.0031230951179031  0.3319128356914756
  0.4878067649667613  0.0759041377204076  0.4259939912849802
  0.5756259184750750  0.0043577743066110  0.4284977420783491
  0.5734301066787377  0.0798230746183941  0.3300927929459244
  0.4948382182144937 -0.0153452220027244  0.5121941043658912
  0.4997051496663216  0.0860258999234773  0.5861899400988447
  0.4939755219141798  0.0921843864897093  0.7510848559593569
  0.5780335774760716  0.1024346845971852  0.6750195905722406
  0.4922467603831912 -0.0121802584745157  0.8259939272245148
  0.5005185270462097  0.0739809814808554  0.9167143745528711
  0.5800285623723748 -0.0140994999641097  0.9220291851070254
  0.5742913051449094  0.0752067289937320  0.8263250399168081
  0.4944339660064997  0.1661549647444138 -0.0122853386139575
  0.4879436538174344  0.2566139514533839  0.0758758781499451
  0.5778017247402468  0.1696671843241694  0.0728751021367704
  0.4960355757998066  0.1809779099763381  0.1674880761425589
  0.4977681605510068  0.2522414035180514  0.2631974304041432
  0.5805483398742813  0.2482451796508855  0.1654369542948216
  0.4980850205602522  0.2400920149214799  0.4250779987367491
  0.5756013027733329  0.1504811484654806  0.4257320159684370
  0.5832279193503139  0.2319106623944017  0.3442223717287395
  0.4962735489134097  0.2545997424797893  0.5715041202845601
  0.4965603882141338  0.1835594893647573  0.6660099798446776
  0.4916259742997646  0.2582090181605401  0.7531645876452342
  0.5794934094831307  0.1866533225948663  0.7610412197102493
  0.5802320922956323  0.2586805437601671  0.6610677883863358
  0.5796915392911075  0.1756042295568430  0.9063996352054908
  0.5805733584839158  0.3211183978302641  0.0675614301838839
  0.5842132701469018  0.4239200363365413  0.0015847051205519
  0.4952489631610760  0.3310600033993155  0.1667007359516804
  0.5051048282142916  0.4164210746656352  0.2565420320643399
  0.5829091212999878  0.3240630800261682  0.2578848718653297
  0.5848364562071585  0.4020250892764419  0.1573532149929328
  0.5006413896579612  0.3320439497465553  0.3464720375211291
  0.5027779169946640  0.4331990329346726  0.4052360715352671
  0.5887574785313856  0.4300547550737445  0.3379817610946796
  0.4990564923410477  0.3449022695036802  0.4881519735481645
  0.5799058797521150  0.3322843630626134  0.5728296003836315
  0.5882624572721057  0.4207231138193306  0.4907021176979736
  0.4891810019679234  0.4119558359566542  0.7517156148180092
  0.5778125168596486  0.3359686207695633  0.7512506128084004
  0.5799825847255791  0.4124899453729148  0.6611312583341943
  0.4885539298279228  0.3376907570214726  0.8412118041479101
  0.4922534534081302  0.4339784675145419  0.9203418535724023
  0.5806068914612642  0.3286041839664020  0.9338119075049963
  0.5789819926178925  0.4108923692015984  0.8468911378185531
  0.5005549727398818  0.5094089201952343  0.0123503690538717
  0.5072322084556575  0.5880783387144907  0.0975303013292241
  0.5836287490719165  0.5887330673913691  0.0102637383605495
  0.5057261376043820  0.4853781834666810  0.1587184510575456
  0.5107208781651372  0.5702504444594153  0.2393158999120358
  0.5992558149694107  0.5834956837124173  0.1675957027519572
  0.5014922968524840  0.5031803471285504  0.4934361706995850
  0.5000387068132723  0.5759854343828457  0.5820458295640998
  0.5872258560630751  0.4934173678586489  0.5827846979016755
  0.5764736291792456  0.4854452795882441  0.7569399366113064
  0.5829631290801528  0.5669052108481798  0.6701306948203185
  0.5069598051943571  0.5927682039721581  0.9136090364971455
  0.5000794875010304  0.6700761927864605  0.0024036173905616
  0.5032479665208253  0.7510127540116938  0.0890128741289738
  0.5938331580661735  0.6754478575816861  0.0876907578214063
  0.5892013860292206  0.7426252032006987  0.1772172051187654
  0.5141416775183816  0.6556196795233263  0.3262762585343412
  0.5133307761345092  0.7447672787635641  0.4127332003982228
  0.5875822552939195  0.6490795655170152  0.4149774779869536
  0.5058577415071697  0.6559436916686952  0.4967974994775254
  0.4999175675396084  0.7523354927942056  0.5866567085795110
  0.5884282451029488  0.6575346063738722  0.5874471387575828
  0.5826519520614849  0.7540846435585622  0.5108688029422569
  0.5014116213183825  0.6594824548654106  0.6689553211984537
  0.4957278050710047  0.7526101335065857  0.7494556176675490
  0.5866190640583698  0.6666409749238766  0.7505173065479970
  0.4968006602454600  0.6639366132919090  0.8268874459971143
  0.4991512070814183  0.7493740814606584  0.9109521099004265
  0.5893290681873037  0.6764826784290036  0.9172334840334196
  0.5834814729130932  0.7653662440893086  0.8338219082293276
  0.5056410956255909  0.8244327139282173  0.0034475179164939
  0.5074282769353543  0.9045034211994833  0.0886058000728818
  0.5026927765655569  0.8283032182911765  0.1758845849365260
  0.5826469271157392  0.8457050967281931  0.2496606345473283
  0.5018203801588179  0.8337941935859212  0.3281425036321632
  0.5759499495516061  0.8479305391934600  0.4275180034173787
  0.5746123434454219  0.9293869838756540  0.3367110083259551
  0.4984611013549211  0.8498075776856504  0.5025306324373793
  0.5894787452718929  0.9276513704323960  0.5256390227449724
  0.5790760126147122  0.8346227239350289  0.7440327030945934
  0.4989994263035172  0.9037672413548016  0.9160869087868392
  0.5921784929300298  0.8362763414853482  0.9225265611196386
  0.5813985152086435  0.9151806107063999  0.8276567554643792
  0.7508166293743519  0.0178563948809437  0.0933199743526284
  0.7438073926911437  0.0834661382224525  0.0022655281967244
  0.6651512395449686  0.0135909878921591  0.1566363230338889
  0.6696874552128580  0.0843251329708994  0.2484920322417337
  0.7550966810947863  0.0015313787182929  0.2434621449989144
  0.6659859595456115  0.0005437789107354  0.3365532105136111
  0.6687125501578551  0.0803958577553875  0.4252388589010684
  0.7590852895272382  0.0695496769977062  0.3341029282004812
  0.7420520211912937  0.0203284931862164  0.5858023642803357
  0.6608915592663045  0.0100032878025534  0.6784788276789258
  0.6690106556862681  0.0971611260343367  0.7534807216605748
  0.6669463008891198 -0.0072844226487385  0.8232224701704178
  0.6541688820456818  0.0721850248404641  0.9120013559712293
  0.7496663504190196  0.0044531398586833  0.9175262375266875
  0.6673508482673214  0.2422869115445282  0.0735357716316187
  0.7537318436887476  0.1668697068665388  0.0817765531371195
  0.7532502617758964  0.2331572988650940 -0.0099932225208041
  0.6659201381986989  0.1683181534422833  0.1678651538193309
  0.6650273647038213  0.2487095809235364  0.2654612148269179
  0.7545732479631342  0.1665022911162812  0.2660673484628887
  0.7552762662402364  0.2470899948466628  0.1704945286182296
  0.6689804248032852  0.2292855181202537  0.4137974673047244
  0.7604795783468853  0.1584243695279206  0.4124786682511490
  0.7623136535470975  0.2588199617342737  0.3398601186200259
  0.6628314639209810  0.1618426626845805  0.5107328561359331
  0.7493800912765113  0.2526983264565717  0.4958119790669868
  0.6673386001185007  0.1820035790001330  0.6587265324505126
  0.6695669869164104  0.2613067924284980  0.7524357758865311
  0.7508972894174804  0.1857540889724885  0.7541325039081443
  0.6631396307842794  0.1799703603178398  0.8370062297520534
  0.7438180656435710  0.1527976035076018  0.9074248114710097
  0.7585339502092183  0.2617877805023202  0.8451370007836631
  0.6714368951738403  0.4092993230165108  0.0775475556755411
  0.7574993179962596  0.3176406971024330  0.0706749822489033
  0.7549111672222284  0.4285191413552147 -0.0000517230093078
  0.6684168911571051  0.3237688966544590  0.1627482408149715
  0.6650982593197518  0.4040420939921494  0.2538250011321197
  0.7544005610564669  0.3321706582601778  0.2543423234920867
  0.7565248331787293  0.4053509879211267  0.1608758036325791
  0.6672648997383130  0.3299622139423968  0.3500497314726231
  0.7506297577109174  0.4186085743329615  0.3424943382827341
  0.6660650746382069  0.3339023285055810  0.4881597867928774
  0.7476993040957375  0.4230750953626309  0.4882039826178405
  0.6683629956759908  0.3350389909676981  0.6563549502143555
  0.6685849954652622  0.4110589270153952  0.7518819806060885
  0.7545138007817563  0.3374826577485159  0.7532153231339722
  0.7526931077431356  0.4141523258237332  0.6640516011504657
  0.6676015926286563  0.3375594865311241  0.8448764357200672
  0.6697485736450206  0.4295004396969367  0.9288669999495442
  0.7547441887763743  0.3336469791919082  0.9302952339350641
  0.7595287143872330  0.4181862845248092  0.8437221214235591
  0.6679529822300561  0.5141622825990598  0.0078198295811228
  0.7504019062906765  0.4875360221011981  0.2486582317017410
  0.7408766463641937  0.5733889020736757  0.1651055403539438
  0.7507890352368620  0.5837938949992684  0.3356277568961116
  0.6669867179338147  0.5073008529467514  0.4904309035423987
  0.7467720039573199  0.4975746031958020  0.5847381001044536
  0.7498814205162007  0.5798192432679529  0.4948415583926443
  0.6650986393137058  0.5650634757811716  0.7442379418846375
  0.6670956312146255  0.4935862377787417  0.8363017786460007
  0.6594229087572810  0.5802665625652813  0.9163214932957209
  0.7482864330721987  0.5786741055860234  0.8303020131273202
  0.7468916487323682  0.7418155036705383  0.0059579630893410
  0.6691210203092480  0.7573453521103429  0.2511034770054266
  0.7415743984723092  0.6637458439725689  0.2511401706356584
  0.6539706976373385  0.6633585785105828  0.3286738666684061
  0.6526036549851101  0.7529728582038644  0.4232144250430218
  0.7434909639883505  0.7577749866188552  0.3410076310308900
  0.6657095586949539  0.6559501574564659  0.5037284449987046
  0.7427443985680566  0.6604267722178702  0.5856924632279628
  0.6638173213966542  0.6674694330022747  0.6642374635173077
  0.6682259647027621  0.7588688774301203  0.7486754431277109
  0.7407594833863143  0.6644354279484640  0.7426633373391929
  0.6628713413598981  0.6667049222056572  0.8302767840450495
  0.7423365101503927  0.6598920073885196  0.9212734252638024
  0.6692680114919461  0.8282820439742254  0.0075446188198265
  0.6594245405273278  0.9229069776536701  0.0792036302385172
  0.7556110500577220  0.8281010738578052  0.0819615246458368
  0.7589474407349134  0.9262500441075172  0.0065316430970977
  0.6666199874571457  0.8356967576991736  0.1625732814720051
  0.6676665729105712  0.9271095563890639  0.2470598743534794
  0.7503563026642728  0.9156709503961166  0.1605399679593821
  0.6608201278153908  0.8464268503202454  0.3367392132198677
  0.6593534568296214  0.9287221569724197  0.4303598551019805
  0.7429621271157658  0.8304496894327936  0.4295284892191264
  0.7523676651999650  0.9179650928841513  0.3407664517097826
  0.6726979059767025  0.9244124811938597  0.5970988386559399
  0.7417447743566910  0.9200924458067380  0.5044450156126948
  0.6676345416691036  0.8221010242413720  0.6586337231146829
  0.6712527763494457  0.9090534190595497  0.7404081465683536
  0.7584019010729798  0.8272141627070604  0.7475676925123628
  0.6790283851235388  0.8399221337515848  0.8380126915891253
  0.6706295318950380  0.9216177375871120  0.9240099729287780
  0.7574496681041309  0.9239277936894835  0.8337556960846998
  0.8392478584129550  0.0103813337466796  0.0039469257350203
  0.8398571921180237  0.0885388387324581  0.0933007672012659
  0.9195853770706858  0.0045950253255895  0.0953279508233889
  0.8439018003124741  0.0834999639309682  0.2546480708510314
  0.9214816652286341 -0.0028288901823315  0.2502794495757960
  0.8394343703801957  0.0680385903786331  0.4179488631486062
  0.9127464626254148 -0.0204994489234549  0.4120612333609249
  0.8319460449560337 -0.0046941139403398  0.5078487631138123
  0.8238908434650997  0.0112783433631515  0.6578833436734646
  0.8236023820430960  0.0937383278763075  0.7426848314574372
  0.9135347718919691  0.0079877310665762  0.7342357889413479
  0.9122266481164859  0.0967204199331811  0.6529586740981586
  0.8334096991009183  0.0097365697865899  0.8277805562951087
  0.8326352596519545  0.0811670938149944  0.9157544876917946
  0.9189269134415365  0.0834778509467188  0.8331283332820203
  0.8452387723342042  0.2447832491715826  0.0788038431139927
  0.9264967846044532  0.1600853995573477  0.0745946118201205
  0.9314936711905611  0.2491640349466341 -0.0083089312409750
  0.8464458579498618  0.1788905932472919  0.1731546759481354
  0.9009801516447828  0.1660113280669437  0.4306945180775890
  0.9091250404450697  0.2588790459686994  0.3427709161271359
  0.8256129190455509  0.2572610471190118  0.5757903520978175
  0.9114302727353578  0.1684137737941785  0.5638395043245858
  0.9083127639911700  0.2624288631248751  0.4941611915301425
  0.8253166964183051  0.1720747993905053  0.6576272266310079
  0.8372274091959107  0.2598099435518014  0.7518653750474522
  0.9136918489704486  0.1685291788740841  0.7496628436335061
  0.9170794308528638  0.2523798845288245  0.6582811460416595
  0.9189405961169451  0.1527361424768688  0.9229645095784257