Mo Fe 
 1.0000000000000000
    23.1600000000000001    0.0000000000000000    0.0000000000000000
     0.0000000000000000   23.1600000000000001    0.0000000000000000
     0.0000000000000000    0.0000000000000000   23.1600000000000001
 Mo  Fe 
 540 324
Cartesian
  0.0000000000000000  1.9299999999999999  1.9299999999999999
  1.9299999999999999  0.0000000000000000  1.9299999999999999
  1.9299999999999999  1.9299999999999999  0.0000000000000000
  0.0000000000000000  1.9299999999999999  5.7900000000000000
  1.9299999999999999  0.0000000000000000  5.7900000000000000
  1.9299999999999999  1.9299999999999999  3.8599999999999999
  0.0000000000000000  0.0000000000000000  7.7199999999999998
  0.0000000000000000  1.9299999999999999  9.6500000000000004
  0.0000000000000000  0.0000000000000000 11.5799999999999983
  0.0000000000000000  1.9299999999999999 13.5099999999999980
  1.9299999999999999  1.9299999999999999 11.5799999999999983
  0.0000000000000000  0.0000000000000000 15.4399999999999995
  1.9299999999999999  0.0000000000000000 17.3700000000000010
  1.9299999999999999  1.9299999999999999 15.4399999999999995
  1.9299999999999999  0.0000000000000000 21.2299999999999969
  1.9299999999999999  1.9299999999999999 19.2999999999999972
  1.9299999999999999  3.8599999999999999  1.9299999999999999
  1.9299999999999999  5.7900000000000000  0.0000000000000000
  0.0000000000000000  3.8599999999999999  3.8599999999999999
  0.0000000000000000  5.7900000000000000  5.7900000000000000
  1.9299999999999999  3.8599999999999999  5.7900000000000000
  1.9299999999999999  5.7900000000000000  3.8599999999999999
  0.0000000000000000  5.7900000000000000  9.6500000000000004
  1.9299999999999999  5.7900000000000000  7.7199999999999998
  0.0000000000000000  5.7900000000000000 13.5099999999999980
  1.9299999999999999  5.7900000000000000 11.5799999999999983
  0.0000000000000000  3.8599999999999999 15.4399999999999995
  1.9299999999999999  5.7900000000000000 19.2999999999999972
  0.0000000000000000  7.7199999999999998  0.0000000000000000
  1.9299999999999999  9.6500000000000004  0.0000000000000000
  0.0000000000000000  7.7199999999999998  3.8599999999999999
  0.0000000000000000  9.6500000000000004  5.7900000000000000
  1.9299999999999999  7.7199999999999998  5.7900000000000000
  1.9299999999999999  9.6500000000000004  3.8599999999999999
  0.0000000000000000  9.6500000000000004  9.6500000000000004
  1.9299999999999999  9.6500000000000004  7.7199999999999998
  0.0000000000000000  7.7199999999999998 11.5799999999999983
  0.0000000000000000  9.6500000000000004 17.3700000000000010
  1.9299999999999999  9.6500000000000004 15.4399999999999995
  0.0000000000000000  9.6500000000000004 21.2299999999999969
  1.9299999999999999  7.7199999999999998 21.2299999999999969
  0.0000000000000000 11.5799999999999983  0.0000000000000000
  1.9299999999999999 11.5799999999999983  1.9299999999999999
  1.9299999999999999 11.5799999999999983  5.7900000000000000
  1.9299999999999999 13.5099999999999980  3.8599999999999999
  0.0000000000000000 11.5799999999999983  7.7199999999999998
  1.9299999999999999 11.5799999999999983  9.6500000000000004
  0.0000000000000000 11.5799999999999983 11.5799999999999983
  0.0000000000000000 13.5099999999999980 13.5099999999999980
  1.9299999999999999 11.5799999999999983 13.5099999999999980
  1.9299999999999999 13.5099999999999980 11.5799999999999983
  0.0000000000000000 13.5099999999999980 17.3700000000000010
  1.9299999999999999 11.5799999999999983 17.3700000000000010
  1.9299999999999999 13.5099999999999980 15.4399999999999995
  0.0000000000000000 11.5799999999999983 19.2999999999999972
  0.0000000000000000 13.5099999999999980 21.2299999999999969
  1.9299999999999999 11.5799999999999983 21.2299999999999969
  0.0000000000000000 15.4399999999999995  0.0000000000000000
  1.9299999999999999 15.4399999999999995  1.9299999999999999
  1.9299999999999999 17.3700000000000010  0.0000000000000000
  0.0000000000000000 17.3700000000000010  5.7900000000000000
  1.9299999999999999 17.3700000000000010  3.8599999999999999
  0.0000000000000000 15.4399999999999995  7.7199999999999998
  0.0000000000000000 17.3700000000000010  9.6500000000000004
  1.9299999999999999 15.4399999999999995  9.6500000000000004
  0.0000000000000000 17.3700000000000010 13.5099999999999980
  1.9299999999999999 15.4399999999999995 13.5099999999999980
  1.9299999999999999 17.3700000000000010 11.5799999999999983
  0.0000000000000000 15.4399999999999995 15.4399999999999995
  0.0000000000000000 17.3700000000000010 17.3700000000000010
  1.9299999999999999 17.3700000000000010 15.4399999999999995
  0.0000000000000000 15.4399999999999995 19.2999999999999972
  1.9299999999999999 17.3700000000000010 19.2999999999999972
  0.0000000000000000 21.2299999999999969  1.9299999999999999
  0.0000000000000000 19.2999999999999972  3.8599999999999999
  1.9299999999999999 19.2999999999999972  5.7900000000000000
  1.9299999999999999 21.2299999999999969  3.8599999999999999
  0.0000000000000000 19.2999999999999972  7.7199999999999998
  1.9299999999999999 21.2299999999999969  7.7199999999999998
  0.0000000000000000 19.2999999999999972 11.5799999999999983
  1.9299999999999999 21.2299999999999969 11.5799999999999983
  0.0000000000000000 19.2999999999999972 15.4399999999999995
  1.9299999999999999 19.2999999999999972 17.3700000000000010
  1.9299999999999999 21.2299999999999969 15.4399999999999995
  0.0000000000000000 19.2999999999999972 19.2999999999999972
  0.0000000000000000 21.2299999999999969 21.2299999999999969
  1.9299999999999999 19.2999999999999972 21.2299999999999969
  1.9299999999999999 21.2299999999999969 19.2999999999999972
  3.8599999999999999  0.0000000000000000  0.0000000000000000
  3.8599999999999999  1.9299999999999999  1.9299999999999999
  5.7900000000000000  1.9299999999999999  0.0000000000000000
  3.8599999999999999  1.9299999999999999  5.7900000000000000
  5.7900000000000000  0.0000000000000000  5.7900000000000000
  5.7900000000000000  1.9299999999999999  3.8599999999999999
  5.7900000000000000  1.9299999999999999  7.7199999999999998
  3.8599999999999999  0.0000000000000000 11.5799999999999983
  3.8599999999999999  1.9299999999999999 13.5099999999999980
  5.7900000000000000  0.0000000000000000 13.5099999999999980
  5.7900000000000000  1.9299999999999999 11.5799999999999983
  3.8599999999999999  0.0000000000000000 15.4399999999999995
  3.8599999999999999  1.9299999999999999 17.3700000000000010
  3.8599999999999999  1.9299999999999999 21.2299999999999969
  3.8599999999999999  3.8599999999999999  0.0000000000000000
  5.7900000000000000  3.8599999999999999  1.9299999999999999
  3.8599999999999999  3.8599999999999999  3.8599999999999999
  3.8599999999999999  5.7900000000000000  5.7900000000000000
  5.7900000000000000  5.7900000000000000  3.8599999999999999
  3.8599999999999999  3.8599999999999999  7.7199999999999998
  5.7900000000000000  3.8599999999999999  9.6500000000000004
  5.7900000000000000  5.7900000000000000  7.7199999999999998
  3.8599999999999999  5.7900000000000000 13.5099999999999980
  5.7900000000000000  5.7900000000000000 11.5799999999999983
  3.8599999999999999  3.8599999999999999 15.4399999999999995
  5.7900000000000000  3.8599999999999999 17.3700000000000010
  5.7900000000000000  5.7900000000000000 15.4399999999999995
  3.8599999999999999  5.7900000000000000 21.2299999999999969
  5.7900000000000000  3.8599999999999999 21.2299999999999969
  5.7900000000000000  5.7900000000000000 19.2999999999999972
  3.8599999999999999  9.6500000000000004  1.9299999999999999
  5.7900000000000000  7.7199999999999998  1.9299999999999999
  3.8599999999999999  7.7199999999999998  3.8599999999999999
  3.8599999999999999  9.6500000000000004  5.7900000000000000
  5.7900000000000000  7.7199999999999998  5.7900000000000000
  5.7900000000000000  9.6500000000000004  3.8599999999999999
  3.8599999999999999  7.7199999999999998  7.7199999999999998
  3.8599999999999999  9.6500000000000004  9.6500000000000004
  5.7900000000000000  7.7199999999999998  9.6500000000000004
  3.8599999999999999  7.7199999999999998 11.5799999999999983
  5.7900000000000000  9.6500000000000004 11.5799999999999983
  3.8599999999999999  7.7199999999999998 15.4399999999999995
  3.8599999999999999  9.6500000000000004 17.3700000000000010
  5.7900000000000000  7.7199999999999998 17.3700000000000010
  5.7900000000000000  9.6500000000000004 15.4399999999999995
  3.8599999999999999  7.7199999999999998 19.2999999999999972
  3.8599999999999999 13.5099999999999980  1.9299999999999999
  3.8599999999999999 11.5799999999999983  3.8599999999999999
  3.8599999999999999 13.5099999999999980  5.7900000000000000
  5.7900000000000000 11.5799999999999983  5.7900000000000000
  3.8599999999999999 11.5799999999999983  7.7199999999999998
  5.7900000000000000 11.5799999999999983  9.6500000000000004
  5.7900000000000000 13.5099999999999980  7.7199999999999998
  3.8599999999999999 11.5799999999999983 11.5799999999999983
  3.8599999999999999 13.5099999999999980 13.5099999999999980
  5.7900000000000000 13.5099999999999980 11.5799999999999983
  3.8599999999999999 11.5799999999999983 15.4399999999999995
  3.8599999999999999 13.5099999999999980 17.3700000000000010
  5.7900000000000000 11.5799999999999983 17.3700000000000010
  5.7900000000000000 13.5099999999999980 15.4399999999999995
  3.8599999999999999 11.5799999999999983 19.2999999999999972
  3.8599999999999999 13.5099999999999980 21.2299999999999969
  3.8599999999999999 17.3700000000000010  1.9299999999999999
  5.7900000000000000 15.4399999999999995  1.9299999999999999
  5.7900000000000000 17.3700000000000010  0.0000000000000000
  3.8599999999999999 15.4399999999999995  3.8599999999999999
  5.7900000000000000 15.4399999999999995  5.7900000000000000
  5.7900000000000000 17.3700000000000010  3.8599999999999999
  3.8599999999999999 15.4399999999999995  7.7199999999999998
  5.7900000000000000 15.4399999999999995  9.6500000000000004
  5.7900000000000000 17.3700000000000010  7.7199999999999998
  5.7900000000000000 15.4399999999999995 13.5099999999999980
  3.8599999999999999 15.4399999999999995 15.4399999999999995
  3.8599999999999999 17.3700000000000010 17.3700000000000010
  3.8599999999999999 15.4399999999999995 19.2999999999999972
  3.8599999999999999 17.3700000000000010 21.2299999999999969
  5.7900000000000000 15.4399999999999995 21.2299999999999969
  5.7900000000000000 17.3700000000000010 19.2999999999999972
  3.8599999999999999 19.2999999999999972  0.0000000000000000
  3.8599999999999999 21.2299999999999969  1.9299999999999999
  5.7900000000000000 21.2299999999999969  0.0000000000000000
  5.7900000000000000 19.2999999999999972  5.7900000000000000
  5.7900000000000000 21.2299999999999969  3.8599999999999999
  3.8599999999999999 19.2999999999999972  7.7199999999999998
  3.8599999999999999 21.2299999999999969  9.6500000000000004
  3.8599999999999999 19.2999999999999972 11.5799999999999983
  5.7900000000000000 21.2299999999999969 11.5799999999999983
  3.8599999999999999 21.2299999999999969 17.3700000000000010
  5.7900000000000000 21.2299999999999969 15.4399999999999995
  3.8599999999999999 19.2999999999999972 19.2999999999999972
  5.7900000000000000 21.2299999999999969 19.2999999999999972
  7.7199999999999998  0.0000000000000000  0.0000000000000000
  7.7199999999999998  1.9299999999999999  1.9299999999999999
  9.6500000000000004  0.0000000000000000  1.9299999999999999
  9.6500000000000004  1.9299999999999999  0.0000000000000000
  7.7199999999999998  0.0000000000000000  3.8599999999999999
  9.6500000000000004  0.0000000000000000  5.7900000000000000
  7.7199999999999998  1.9299999999999999  9.6500000000000004
  9.6500000000000004  0.0000000000000000  9.6500000000000004
  9.6500000000000004  1.9299999999999999  7.7199999999999998
  7.7199999999999998  0.0000000000000000 11.5799999999999983
  7.7199999999999998  1.9299999999999999 13.5099999999999980
  9.6500000000000004  0.0000000000000000 13.5099999999999980
  7.7199999999999998  0.0000000000000000 15.4399999999999995
  7.7199999999999998  1.9299999999999999 17.3700000000000010
  7.7199999999999998  0.0000000000000000 19.2999999999999972
  7.7199999999999998  1.9299999999999999 21.2299999999999969
  9.6500000000000004  0.0000000000000000 21.2299999999999969
  7.7199999999999998  3.8599999999999999  0.0000000000000000
  9.6500000000000004  3.8599999999999999  1.9299999999999999
  9.6500000000000004  5.7900000000000000  0.0000000000000000
  7.7199999999999998  3.8599999999999999  3.8599999999999999
  7.7199999999999998  5.7900000000000000  5.7900000000000000
  9.6500000000000004  3.8599999999999999  5.7900000000000000
  9.6500000000000004  5.7900000000000000  3.8599999999999999
  7.7199999999999998  3.8599999999999999  7.7199999999999998
  9.6500000000000004  5.7900000000000000  7.7199999999999998
  7.7199999999999998  3.8599999999999999 11.5799999999999983
  7.7199999999999998  5.7900000000000000 13.5099999999999980
  9.6500000000000004  3.8599999999999999 13.5099999999999980
  9.6500000000000004  5.7900000000000000 11.5799999999999983
  7.7199999999999998  3.8599999999999999 15.4399999999999995
  7.7199999999999998  5.7900000000000000 17.3700000000000010
  9.6500000000000004  3.8599999999999999 17.3700000000000010
  9.6500000000000004  5.7900000000000000 15.4399999999999995
  7.7199999999999998  5.7900000000000000 21.2299999999999969
  7.7199999999999998  9.6500000000000004  1.9299999999999999
  9.6500000000000004  9.6500000000000004  0.0000000000000000
  7.7199999999999998  7.7199999999999998  3.8599999999999999
  9.6500000000000004  7.7199999999999998  5.7900000000000000
  9.6500000000000004  9.6500000000000004  3.8599999999999999
  7.7199999999999998  7.7199999999999998  7.7199999999999998
  7.7199999999999998  9.6500000000000004  9.6500000000000004
  7.7199999999999998  7.7199999999999998 11.5799999999999983
  7.7199999999999998  9.6500000000000004 13.5099999999999980
  9.6500000000000004  7.7199999999999998 13.5099999999999980
  7.7199999999999998  7.7199999999999998 15.4399999999999995
  7.7199999999999998  9.6500000000000004 17.3700000000000010
  7.7199999999999998  7.7199999999999998 19.2999999999999972
  7.7199999999999998  9.6500000000000004 21.2299999999999969
  9.6500000000000004  7.7199999999999998 21.2299999999999969
  9.6500000000000004  9.6500000000000004 19.2999999999999972
  7.7199999999999998 11.5799999999999983  0.0000000000000000
  7.7199999999999998 11.5799999999999983  3.8599999999999999
  7.7199999999999998 13.5099999999999980  5.7900000000000000
  9.6500000000000004 13.5099999999999980  3.8599999999999999
  9.6500000000000004 11.5799999999999983  9.6500000000000004
  7.7199999999999998 11.5799999999999983 11.5799999999999983
  9.6500000000000004 11.5799999999999983 13.5099999999999980
  9.6500000000000004 13.5099999999999980 11.5799999999999983
  7.7199999999999998 11.5799999999999983 15.4399999999999995
  9.6500000000000004 11.5799999999999983 17.3700000000000010
  9.6500000000000004 13.5099999999999980 15.4399999999999995
  7.7199999999999998 11.5799999999999983 19.2999999999999972
  9.6500000000000004 13.5099999999999980 19.2999999999999972
  7.7199999999999998 17.3700000000000010  1.9299999999999999
  9.6500000000000004 15.4399999999999995  1.9299999999999999
  9.6500000000000004 17.3700000000000010  0.0000000000000000
  7.7199999999999998 17.3700000000000010  5.7900000000000000
  9.6500000000000004 15.4399999999999995  5.7900000000000000
  7.7199999999999998 15.4399999999999995  7.7199999999999998
  9.6500000000000004 15.4399999999999995  9.6500000000000004
  9.6500000000000004 17.3700000000000010  7.7199999999999998
  7.7199999999999998 15.4399999999999995 11.5799999999999983
  7.7199999999999998 17.3700000000000010 13.5099999999999980
  9.6500000000000004 15.4399999999999995 13.5099999999999980
  9.6500000000000004 17.3700000000000010 11.5799999999999983
  7.7199999999999998 15.4399999999999995 15.4399999999999995
  7.7199999999999998 17.3700000000000010 17.3700000000000010
  9.6500000000000004 15.4399999999999995 17.3700000000000010
  9.6500000000000004 17.3700000000000010 15.4399999999999995
  7.7199999999999998 15.4399999999999995 19.2999999999999972
  9.6500000000000004 15.4399999999999995 21.2299999999999969
  9.6500000000000004 17.3700000000000010 19.2999999999999972
  7.7199999999999998 19.2999999999999972  0.0000000000000000
  9.6500000000000004 19.2999999999999972  1.9299999999999999
  9.6500000000000004 21.2299999999999969  0.0000000000000000
  9.6500000000000004 19.2999999999999972  5.7900000000000000
  9.6500000000000004 21.2299999999999969  3.8599999999999999
  7.7199999999999998 19.2999999999999972  7.7199999999999998
  7.7199999999999998 21.2299999999999969  9.6500000000000004
  9.6500000000000004 19.2999999999999972  9.6500000000000004
  9.6500000000000004 21.2299999999999969  7.7199999999999998
  9.6500000000000004 21.2299999999999969 11.5799999999999983
  7.7199999999999998 19.2999999999999972 15.4399999999999995
  9.6500000000000004 19.2999999999999972 17.3700000000000010
  9.6500000000000004 21.2299999999999969 15.4399999999999995
  7.7199999999999998 19.2999999999999972 19.2999999999999972
  7.7199999999999998 21.2299999999999969 21.2299999999999969
 11.5799999999999983  0.0000000000000000  0.0000000000000000
 11.5799999999999983  1.9299999999999999  1.9299999999999999
 13.5099999999999980  0.0000000000000000  1.9299999999999999
 13.5099999999999980  1.9299999999999999  0.0000000000000000
 13.5099999999999980  1.9299999999999999  3.8599999999999999
 11.5799999999999983  0.0000000000000000  7.7199999999999998
 11.5799999999999983  1.9299999999999999  9.6500000000000004
 13.5099999999999980  0.0000000000000000  9.6500000000000004
 13.5099999999999980  1.9299999999999999  7.7199999999999998
 11.5799999999999983  0.0000000000000000 11.5799999999999983
 13.5099999999999980  0.0000000000000000 13.5099999999999980
 13.5099999999999980  1.9299999999999999 11.5799999999999983
 11.5799999999999983  1.9299999999999999 17.3700000000000010
 13.5099999999999980  0.0000000000000000 17.3700000000000010
 13.5099999999999980  1.9299999999999999 15.4399999999999995
 11.5799999999999983  0.0000000000000000 19.2999999999999972
 11.5799999999999983  1.9299999999999999 21.2299999999999969
 13.5099999999999980  0.0000000000000000 21.2299999999999969
 13.5099999999999980  1.9299999999999999 19.2999999999999972
 11.5799999999999983  5.7900000000000000  1.9299999999999999
 11.5799999999999983  3.8599999999999999  3.8599999999999999
 11.5799999999999983  5.7900000000000000  5.7900000000000000
 11.5799999999999983  5.7900000000000000  9.6500000000000004
 13.5099999999999980  3.8599999999999999  9.6500000000000004
 13.5099999999999980  5.7900000000000000  7.7199999999999998
 11.5799999999999983  3.8599999999999999 11.5799999999999983
 11.5799999999999983  5.7900000000000000 13.5099999999999980
 13.5099999999999980  3.8599999999999999 13.5099999999999980
 13.5099999999999980  5.7900000000000000 15.4399999999999995
 11.5799999999999983  3.8599999999999999 19.2999999999999972
 13.5099999999999980  3.8599999999999999 21.2299999999999969
 13.5099999999999980  5.7900000000000000 19.2999999999999972
 11.5799999999999983  7.7199999999999998  0.0000000000000000
 13.5099999999999980  9.6500000000000004  0.0000000000000000
 11.5799999999999983  9.6500000000000004  5.7900000000000000
 13.5099999999999980  9.6500000000000004  3.8599999999999999
 11.5799999999999983  9.6500000000000004  9.6500000000000004
 13.5099999999999980  7.7199999999999998  9.6500000000000004
 13.5099999999999980  9.6500000000000004  7.7199999999999998
 11.5799999999999983  7.7199999999999998 11.5799999999999983
 11.5799999999999983  9.6500000000000004 13.5099999999999980
 13.5099999999999980  9.6500000000000004 11.5799999999999983
 11.5799999999999983  7.7199999999999998 15.4399999999999995
 11.5799999999999983  9.6500000000000004 17.3700000000000010
 13.5099999999999980  7.7199999999999998 17.3700000000000010
 13.5099999999999980  9.6500000000000004 15.4399999999999995
 11.5799999999999983  7.7199999999999998 19.2999999999999972
 11.5799999999999983  9.6500000000000004 21.2299999999999969
 13.5099999999999980  7.7199999999999998 21.2299999999999969
 11.5799999999999983 11.5799999999999983  0.0000000000000000
 11.5799999999999983 13.5099999999999980  1.9299999999999999
 11.5799999999999983 11.5799999999999983  3.8599999999999999
 11.5799999999999983 13.5099999999999980  5.7900000000000000
 13.5099999999999980 11.5799999999999983  5.7900000000000000
 13.5099999999999980 13.5099999999999980  3.8599999999999999
 11.5799999999999983 11.5799999999999983  7.7199999999999998
 13.5099999999999980 11.5799999999999983  9.6500000000000004
 13.5099999999999980 11.5799999999999983 13.5099999999999980
 11.5799999999999983 13.5099999999999980 17.3700000000000010
 13.5099999999999980 11.5799999999999983 17.3700000000000010
 13.5099999999999980 13.5099999999999980 15.4399999999999995
 11.5799999999999983 11.5799999999999983 19.2999999999999972
 13.5099999999999980 11.5799999999999983 21.2299999999999969
 13.5099999999999980 13.5099999999999980 19.2999999999999972
 11.5799999999999983 17.3700000000000010  1.9299999999999999
 13.5099999999999980 15.4399999999999995  1.9299999999999999
 13.5099999999999980 17.3700000000000010  0.0000000000000000
 13.5099999999999980 15.4399999999999995  5.7900000000000000
 13.5099999999999980 17.3700000000000010  3.8599999999999999
 11.5799999999999983 15.4399999999999995  7.7199999999999998
 13.5099999999999980 15.4399999999999995  9.6500000000000004
 11.5799999999999983 17.3700000000000010 13.5099999999999980
 13.5099999999999980 15.4399999999999995 17.3700000000000010
 11.5799999999999983 15.4399999999999995 19.2999999999999972
 11.5799999999999983 17.3700000000000010 21.2299999999999969
 13.5099999999999980 15.4399999999999995 21.2299999999999969
 11.5799999999999983 19.2999999999999972  0.0000000000000000
 11.5799999999999983 21.2299999999999969  1.9299999999999999
 11.5799999999999983 19.2999999999999972  3.8599999999999999
 13.5099999999999980 19.2999999999999972  9.6500000000000004
 11.5799999999999983 19.2999999999999972 11.5799999999999983
 11.5799999999999983 21.2299999999999969 13.5099999999999980
 13.5099999999999980 21.2299999999999969 11.5799999999999983
 13.5099999999999980 19.2999999999999972 17.3700000000000010
 13.5099999999999980 21.2299999999999969 15.4399999999999995
 11.5799999999999983 21.2299999999999969 21.2299999999999969
 15.4399999999999995  0.0000000000000000  0.0000000000000000
 15.4399999999999995  1.9299999999999999  1.9299999999999999
 17.3700000000000010  0.0000000000000000  1.9299999999999999
 15.4399999999999995  0.0000000000000000  3.8599999999999999
 17.3700000000000010  0.0000000000000000  5.7900000000000000
 15.4399999999999995  0.0000000000000000  7.7199999999999998
 15.4399999999999995  1.9299999999999999 13.5099999999999980
 17.3700000000000010  0.0000000000000000 13.5099999999999980
 17.3700000000000010  1.9299999999999999 11.5799999999999983
 15.4399999999999995  0.0000000000000000 15.4399999999999995
 17.3700000000000010  0.0000000000000000 17.3700000000000010
 15.4399999999999995  0.0000000000000000 19.2999999999999972
 17.3700000000000010  1.9299999999999999 19.2999999999999972
 15.4399999999999995  3.8599999999999999  0.0000000000000000
 15.4399999999999995  5.7900000000000000  1.9299999999999999
 17.3700000000000010  3.8599999999999999  1.9299999999999999
 15.4399999999999995  5.7900000000000000  5.7900000000000000
 15.4399999999999995  5.7900000000000000  9.6500000000000004
 17.3700000000000010  3.8599999999999999  9.6500000000000004
 17.3700000000000010  5.7900000000000000  7.7199999999999998
 15.4399999999999995  3.8599999999999999 11.5799999999999983
 15.4399999999999995  5.7900000000000000 13.5099999999999980
 17.3700000000000010  3.8599999999999999 13.5099999999999980
 17.3700000000000010  5.7900000000000000 11.5799999999999983
 15.4399999999999995  5.7900000000000000 17.3700000000000010
 17.3700000000000010  3.8599999999999999 17.3700000000000010
 15.4399999999999995  3.8599999999999999 19.2999999999999972
 15.4399999999999995  5.7900000000000000 21.2299999999999969
 17.3700000000000010  3.8599999999999999 21.2299999999999969
 17.3700000000000010  5.7900000000000000 19.2999999999999972
 15.4399999999999995  7.7199999999999998  0.0000000000000000
 15.4399999999999995  9.6500000000000004  1.9299999999999999
 17.3700000000000010  7.7199999999999998  1.9299999999999999
 17.3700000000000010  9.6500000000000004  0.0000000000000000
 15.4399999999999995  9.6500000000000004  5.7900000000000000
 17.3700000000000010  7.7199999999999998  5.7900000000000000
 15.4399999999999995  7.7199999999999998  7.7199999999999998
 15.4399999999999995  9.6500000000000004  9.6500000000000004
 17.3700000000000010  7.7199999999999998  9.6500000000000004
 15.4399999999999995  7.7199999999999998 11.5799999999999983
 15.4399999999999995  9.6500000000000004 13.5099999999999980
 17.3700000000000010  9.6500000000000004 11.5799999999999983
 15.4399999999999995  9.6500000000000004 17.3700000000000010
 17.3700000000000010  7.7199999999999998 17.3700000000000010
 17.3700000000000010  7.7199999999999998 21.2299999999999969
 17.3700000000000010  9.6500000000000004 19.2999999999999972
 15.4399999999999995 11.5799999999999983  0.0000000000000000
 15.4399999999999995 13.5099999999999980  1.9299999999999999
 17.3700000000000010 13.5099999999999980  0.0000000000000000
 15.4399999999999995 11.5799999999999983  3.8599999999999999
 15.4399999999999995 13.5099999999999980  5.7900000000000000
 17.3700000000000010 13.5099999999999980  3.8599999999999999
 15.4399999999999995 13.5099999999999980  9.6500000000000004
 17.3700000000000010 11.5799999999999983  9.6500000000000004
 17.3700000000000010 13.5099999999999980  7.7199999999999998
 15.4399999999999995 13.5099999999999980 13.5099999999999980
 17.3700000000000010 11.5799999999999983 13.5099999999999980
 17.3700000000000010 13.5099999999999980 11.5799999999999983
 17.3700000000000010 11.5799999999999983 17.3700000000000010
 17.3700000000000010 13.5099999999999980 15.4399999999999995
 15.4399999999999995 11.5799999999999983 19.2999999999999972
 17.3700000000000010 11.5799999999999983 21.2299999999999969
 15.4399999999999995 17.3700000000000010  1.9299999999999999
 17.3700000000000010 15.4399999999999995  1.9299999999999999
 17.3700000000000010 17.3700000000000010  0.0000000000000000
 15.4399999999999995 15.4399999999999995  3.8599999999999999
 15.4399999999999995 17.3700000000000010  5.7900000000000000
 17.3700000000000010 15.4399999999999995  5.7900000000000000
 17.3700000000000010 17.3700000000000010  7.7199999999999998
 17.3700000000000010 17.3700000000000010 11.5799999999999983
 15.4399999999999995 15.4399999999999995 15.4399999999999995
 15.4399999999999995 17.3700000000000010 17.3700000000000010
 17.3700000000000010 15.4399999999999995 17.3700000000000010
 17.3700000000000010 17.3700000000000010 15.4399999999999995
 17.3700000000000010 15.4399999999999995 21.2299999999999969
 15.4399999999999995 19.2999999999999972  0.0000000000000000
 15.4399999999999995 21.2299999999999969  1.9299999999999999
 17.3700000000000010 21.2299999999999969  0.0000000000000000
 15.4399999999999995 19.2999999999999972  3.8599999999999999
 15.4399999999999995 21.2299999999999969  5.7900000000000000
 15.4399999999999995 19.2999999999999972  7.7199999999999998
 15.4399999999999995 21.2299999999999969  9.6500000000000004
 17.3700000000000010 19.2999999999999972  9.6500000000000004
 15.4399999999999995 21.2299999999999969 13.5099999999999980
 17.3700000000000010 19.2999999999999972 13.5099999999999980
 17.3700000000000010 21.2299999999999969 11.5799999999999983
 15.4399999999999995 19.2999999999999972 15.4399999999999995
 15.4399999999999995 21.2299999999999969 17.3700000000000010
 17.3700000000000010 19.2999999999999972 17.3700000000000010
 15.4399999999999995 19.2999999999999972 19.2999999999999972
 15.4399999999999995 21.2299999999999969 21.2299999999999969
 19.2999999999999972  0.0000000000000000  0.0000000000000000
 19.2999999999999972  0.0000000000000000  3.8599999999999999
 19.2999999999999972  1.9299999999999999  5.7900000000000000
 21.2299999999999969  1.9299999999999999  3.8599999999999999
 19.2999999999999972  1.9299999999999999  9.6500000000000004
 21.2299999999999969  1.9299999999999999  7.7199999999999998
 21.2299999999999969  1.9299999999999999 11.5799999999999983
 19.2999999999999972  0.0000000000000000 15.4399999999999995
 21.2299999999999969  0.0000000000000000 17.3700000000000010
 19.2999999999999972  0.0000000000000000 19.2999999999999972
 19.2999999999999972  3.8599999999999999  0.0000000000000000
 19.2999999999999972  5.7900000000000000  1.9299999999999999
 21.2299999999999969  5.7900000000000000  0.0000000000000000
 19.2999999999999972  5.7900000000000000  5.7900000000000000
 21.2299999999999969  3.8599999999999999  5.7900000000000000
 19.2999999999999972  3.8599999999999999  7.7199999999999998
 19.2999999999999972  5.7900000000000000  9.6500000000000004
 21.2299999999999969  5.7900000000000000  7.7199999999999998
 19.2999999999999972  3.8599999999999999 11.5799999999999983
 21.2299999999999969  5.7900000000000000 11.5799999999999983
 19.2999999999999972  5.7900000000000000 17.3700000000000010
 21.2299999999999969  3.8599999999999999 17.3700000000000010
 21.2299999999999969  5.7900000000000000 15.4399999999999995
 19.2999999999999972  3.8599999999999999 19.2999999999999972
 19.2999999999999972  5.7900000000000000 21.2299999999999969
 21.2299999999999969  3.8599999999999999 21.2299999999999969
 21.2299999999999969  5.7900000000000000 19.2999999999999972
 19.2999999999999972  7.7199999999999998  3.8599999999999999
 21.2299999999999969  7.7199999999999998  5.7900000000000000
 21.2299999999999969  9.6500000000000004  3.8599999999999999
 19.2999999999999972  7.7199999999999998  7.7199999999999998
 19.2999999999999972  9.6500000000000004  9.6500000000000004
 21.2299999999999969  7.7199999999999998  9.6500000000000004