Mo Fe                                   
   1.00000000000000     
    22.0100377834732797   -0.0299025226691218   -0.0088264569372504
    -0.0302271092611775   22.8444060205632056   -0.0056036234933544
    -0.0096005293854330   -0.0054411098452354   23.2333238419314938
   Mo   Fe
   540   324
Direct
 -0.0057991838648393  0.0763769116117364  0.0781285251241725
  0.0765155683082138 -0.0019709930570395  0.0789181329400332
  0.0784655298168088  0.0765376303707195 -0.0118713913040087
  0.0054652444369249  0.0785205435389728  0.2529462554155418
  0.0797070967929026 -0.0124571068808747  0.2561652961132108
  0.0861141461354978  0.0670695065047350  0.1669378432791206
 -0.0068486779694532 -0.0065673599448526  0.3430574315264671
 -0.0052233014930177  0.0900693079421751  0.4164244837926337
  0.0052983888316254 -0.0003701335849890  0.4985972611709426
 -0.0026349289928748  0.0879769817052600  0.5799266824943646
  0.0888808075665838  0.0872746047594028  0.4941672977824350
 -0.0081813591421156  0.0057125025302803  0.6582476369720504
  0.0721515321822431 -0.0022817501022405  0.7527542200307654
  0.0925829356227866  0.0767352015108752  0.6659430425104576
  0.0720478884072817 -0.0073169012542533  0.9155469047283805
  0.0740041594754781  0.0847965514727992  0.8404671281765564
  0.0980093448017092  0.1558893058273819  0.0668309254415565
  0.0797549715303981  0.2484821823500403  0.0044729200121058
  0.0181675881199147  0.1666804730940212  0.1529800828882443
  0.0176759085871159  0.2501568353794691  0.2467748076262166
  0.0887283694320573  0.1635720046877448  0.2555630517704995
  0.0941121202709750  0.2540976174338478  0.1529629598503664
 -0.0094844945149777  0.2396215957990785  0.4233988207755179
  0.0738536412601565  0.2513126143708032  0.3485958843953333
  0.0105086978902866  0.2393817052997668  0.5784245997359780
  0.0840899709679157  0.2395195828095710  0.4905139061113921
  0.0160982612161286  0.1587686532462282  0.6698874727788114
  0.0817233236974641  0.2447782128096511  0.8394413923787327
 -0.0067799535953856  0.3369203687727966  0.0075461664940818
  0.0841732527388754  0.4170931254342662  0.0036527720376315
  0.0055953973270494  0.3304398684071067  0.1488961379613116
  0.0045808510152064  0.4197345814094391  0.2449412142515359
  0.0859314067921427  0.3388946072104344  0.2513518378167523
  0.0777174792098869  0.4268738265647075  0.1546541402480755
 -0.0174495926779770  0.4089012374070938  0.4214068668092864
  0.0610856208066007  0.4239133526669494  0.3418169100302070
 -0.0056790012174616  0.3284078790220282  0.5060524959830599
  0.0070020590277082  0.4127939966485663  0.7575700551590482
  0.0658069943330514  0.4179684945062392  0.6606715315341419
 -0.0160802284477828  0.4107048467706674  0.9112480644258636
  0.0777771019623921  0.3393161143201312  0.9226591974630129
 -0.0168244230650230  0.4997621757469754 -0.0048759648926166
  0.0745331579227503  0.5098828439970537  0.0679202265017214
  0.0669849386529696  0.5164207687936312  0.2528048858965120
  0.0677607578057631  0.5835556972618112  0.1623406016680138
 -0.0140432706104355  0.5151816973339864  0.3378738806963383
  0.0661679692630875  0.5095710620943054  0.4264349002762089
 -0.0167242570548919  0.4984701660770789  0.5051953108248239
 -0.0084494138661469  0.5965807066703849  0.5885391151150159
  0.0709695081280121  0.4966925551848343  0.5795178399727249
  0.0808295116917632  0.5850138153651365  0.5081290217637801
  0.0043374197238919  0.5939064357550102  0.7512428620012689
  0.0773549339757318  0.5054780457666184  0.7534662076147874
  0.0926237376761486  0.5870487654763509  0.6589966343592035
 -0.0094766459988405  0.5045009417423945  0.8369103235284112
 -0.0016639792529463  0.5843519318634584  0.9136190291949267
  0.0824078852344564  0.4942494570368826  0.9214410700471690
 -0.0109031378919261  0.6657798108325587 -0.0031810730005548
  0.0753996596537045  0.6589230275748549  0.0769494225505894
  0.0754079957603986  0.7521792976920374  0.0085067313010500
  0.0041450455670745  0.7437909006380703  0.2441648336895992
  0.0894797393485507  0.7500812493751962  0.1535354016643486
  0.0071064156497147  0.6651556480928575  0.3344863561048029
 -0.0021149151141778  0.7496903155413377  0.4212532072646555
  0.0879909987160225  0.6641329719229578  0.4272014233765168
 -0.0064202350086432  0.7442786739468372  0.5816247916519945
  0.0917663185322241  0.6708128129175014  0.5770718906146037
  0.0856459900301954  0.7591061940636280  0.5034477775975110
 -0.0030888857334407  0.6717795207651035  0.6675316297816358
  0.0063531665397102  0.7402737270924473  0.7474905817218045
  0.0967143929365671  0.7504179095815119  0.6596386958625488
  0.0128957669740572  0.6702146420847082  0.8407707053970178
  0.0914574035381606  0.7529646452005162  0.8389868835073785
 -0.0098619655658173  0.9206327807416262  0.0751574984234910
 -0.0057441124680649  0.8345229246258088  0.1666267845114831
  0.0840967798428486  0.8313057616495234  0.2509341979157990
  0.0762109013651061  0.9186090339887504  0.1662839175383486
 -0.0050511422997727  0.8374165410551830  0.3315276374547243
  0.0826940136892252  0.9159911344685693  0.3431760620805057
 -0.0039641262337851  0.8390568882831498  0.5060470031998181
  0.0840819827700234  0.9172422108130440  0.5017316839052566
  0.0024628140690289  0.8325408056329485  0.6542035496554325
  0.0761898697301023  0.8405255437600075  0.7459932258227921
  0.0833681287792041  0.9234743184302641  0.6532152147962348
 -0.0050877550087510  0.8276186470048327  0.8356343021035676
 -0.0171240315160629  0.9198893527392852  0.9307526465912442
  0.0705705619404662  0.8425585156566101  0.9247130574260739
  0.0675783667736834  0.9214972961501841  0.8331563519110279
  0.1713481292066390 -0.0059570860099190 -0.0086044149349837
  0.1783755136498514  0.0642578456662792  0.0785904298183994
  0.2666185810644615  0.0709843241409974 -0.0036934949877540
  0.1610501004702238  0.0734719547178681  0.2600107563978645
  0.2430923794884504 -0.0172617772637875  0.2555546081310781
  0.2361060428521156  0.0754138553587938  0.1740648854214433
  0.2548678931287147  0.0740058115258955  0.3344590109565790
  0.1687698782599689 -0.0002757942884115  0.5042514364712222
  0.1807935325005478  0.0929100403735394  0.5780312703838865
  0.2651294155991367 -0.0022624956438425  0.5834404413292004
  0.2553505283529272  0.0828995965008219  0.4885789048286767
  0.1773322687148431 -0.0004588073375375  0.6572828060761841
  0.1670866052541251  0.0743510599761633  0.7618544420333729
  0.1715552890697533  0.0749339155146900  0.9062792721064006
  0.1813830585169447  0.1580631938050348 -0.0116991729540379
  0.2465999620926762  0.1695955071095279  0.0829708716559766
  0.1634899484674631  0.1643714456743606  0.1638225399555652
  0.1631578808579848  0.2545271528297381  0.2607169238299252
  0.2321241342434088  0.2595665749025361  0.1671147196036751
  0.1624707933243801  0.1595168713410712  0.3505925697921325
  0.2563970948159305  0.1638475923451838  0.4154802682973454
  0.2486254576863791  0.2523050037938368  0.3454108795540538
  0.1535950993511704  0.2445317509561545  0.5781372356170920
  0.2428197764443366  0.2529449098327905  0.4901606470775235
  0.1664435544075367  0.1663250347763471  0.6688710727287602
  0.2375979135489386  0.1675882882515480  0.7662479108254886
  0.2351519057163364  0.2606860941167450  0.6684022891887594
  0.1661026403384397  0.2533870078727757  0.9272854723810574
  0.2563097502951221  0.1654027850402968  0.9031129534898832
  0.2301352196403540  0.2621935222590610  0.8339546399003236
  0.1733694572933583  0.4306808655228893  0.0760307409061942
  0.2453371431773096  0.3369057877644033  0.0721505859885061
  0.1634886252427480  0.3455363684559324  0.1623534484631954
  0.1527955247190849  0.4389205973832471  0.2592753645215383
  0.2322965050462229  0.3563353486040974  0.2599574553791370
  0.2498866726978119  0.4340435263723204  0.1665087304695835
  0.1571551665776019  0.3441598897293451  0.3492303696115591
  0.1573932340839466  0.4256179362377951  0.4203393111744888
  0.2511844601281492  0.3413528143511887  0.4160219271206217
  0.1530990988983011  0.3371792126722923  0.4958191552344000
  0.2529681651058274  0.4041233229221118  0.5114850839943281
  0.1513426746098674  0.3385425300836886  0.6625129439265295
  0.1572602582256929  0.4225470092163812  0.7499500959162215
  0.2425597596971479  0.3458483274637363  0.7514820222979864
  0.2509533639158792  0.4031411970767777  0.6506562705113906
  0.1550811115189794  0.3486466719310888  0.8399139226691184
  0.1710985280458575  0.5742001970486872  0.0723526494177778
  0.1649762237532151  0.5119896933067323  0.1651510411296181
  0.1657774407230054  0.5786165727637277  0.2532582837607934
  0.2602137596789326  0.5028629268910079  0.2610428501524671
  0.1628837117786459  0.5122192163227541  0.3471910154796272
  0.2630006050022942  0.4932293260318650  0.4179518829515865
  0.2626236370796557  0.5886787751735407  0.3441329019187762
  0.1653649902321277  0.4901339785974458  0.5022057823297184
  0.1778141041110610  0.5806394767649373  0.5786695688133323
  0.2477839222124734  0.5804383195395699  0.4908987548104065
  0.1697031032095896  0.4878712195156982  0.6579794665299117
  0.1733663606048658  0.5674444005737125  0.7526463990787732
  0.2624562475753611  0.4842283035511070  0.7500532907014221
  0.2567498530927211  0.5774834269067092  0.6636142105415630
  0.1715865879198547  0.4944801370700765  0.8426436620326474
  0.1639656263855283  0.5795424348142728  0.9281011696372482
  0.1715017155518172  0.7521664788987389  0.0738693205970257
  0.2568321259560566  0.6545596134695392  0.0842413726556210
  0.2559043675361808  0.7507250025058246 -0.0049123800870541
  0.1653924474491820  0.6546357213539278  0.1631393389841960
  0.2527397508796655  0.6575083816574533  0.2429186766062457
  0.2329094037613010  0.7545657449714402  0.1664466179739865
  0.1531301315708044  0.6634573242387493  0.3314056706569449
  0.2401883417063070  0.6745926257564041  0.4185256558401069
  0.2409640564641224  0.7438935219224059  0.3312314753431408
  0.2474474413558388  0.6760406011918799  0.5760499636957793
  0.1802704679025290  0.6665116566181325  0.6687847732398364
  0.1681412973882214  0.7544712206366669  0.7501952945471122
  0.1617862960137998  0.6553670975309952  0.8375462084645543
  0.1591480557798045  0.7487252814326752  0.9313537952135937
  0.2511761517432035  0.6574701386229822  0.9259693043468007
  0.2321274508060976  0.7505137341798176  0.8463443806806585
  0.1680886484214625  0.8475024077825690 -0.0030428120799749
  0.1623272130784283  0.9211262529509531  0.0830200475052992
  0.2586310761163559  0.9227610727126295  0.0007733718679377
  0.2356077718747607  0.8385450515842682  0.2509367329423644
  0.2484482491012891  0.9056315923515456  0.1618538483117878
  0.1629817422516228  0.8292694705110600  0.3425135376919239
  0.1761089839513851  0.9224940842754463  0.4160055932547599
  0.1679497665054723  0.8374531746111274  0.4950177219669689
  0.2568413988677347  0.9108129838160408  0.5030458130089349
  0.1641077899573393  0.9217270269690376  0.7457368275066606
  0.2495910946016885  0.9035465306859227  0.6648003711852024
  0.1623204780577525  0.8440378297442842  0.8413559480330550
  0.2492031468755123  0.9186692864327625  0.8310180891195885
  0.3493678001466664 -0.0070632764722485  0.0076395052967045
  0.3274340733198081  0.0824869973137728  0.0952284092810089
  0.4238360897705305 -0.0027256715138842  0.1011254754388897
  0.4138428400983110  0.0929410440670310  0.0072157334273291
  0.3271990150854603 -0.0079904927798703  0.1724206536282940
  0.4160516704922400 -0.0070758469109387  0.2452081299432094
  0.3492730466681739  0.0726377260090124  0.4080418072118959
  0.4269441847322432 -0.0145702362227054  0.4011135490400913
  0.4132175254950217  0.0846527415704562  0.3145671501154601
  0.3422349400827229 -0.0040492718016679  0.4987184063306303
  0.3226680182295941  0.0961946128447564  0.5873589940203479
  0.4083846306456664  0.0017368503981551  0.5948693430869982
  0.3254667716880962 -0.0042746899203754  0.6780547373695356
  0.3299505445560689  0.0845245778202174  0.7553599803527777
  0.3424598103899737 -0.0063122796481186  0.8202733913504469
  0.3378714490467164  0.0815559802843441  0.9082197312539024
  0.4217002828134176 -0.0008202238035562  0.9135099034939441
  0.3254187670097509  0.1722050983577904  0.0008324031043893
  0.4012380652876860  0.1739137050012267  0.1018794764453582
  0.4113073808038501  0.2472116536541451  0.0073714771787887
  0.3109592082162753  0.1722551052522812  0.1827989557704431
  0.3119092071312992  0.2690341078753954  0.2536162341470296
  0.4107589837520543  0.1760832435537114  0.2413455505093794
  0.4076443096172280  0.2658625216852214  0.1676225715097991
  0.3278410280973860  0.1668346550257165  0.3195993371298456
  0.4180447806405913  0.2501559441276976  0.3337753105675374
  0.3415470199814809  0.1754631340284183  0.4913215067294107
  0.3391657310769742  0.2529631567201693  0.5803161729537636
  0.4186596557828471  0.1606347680125460  0.5880715358428704
  0.4339741246061866  0.2433136438140637  0.4839788153339429
  0.3161009157614173  0.1773668094763303  0.6698309208229989
  0.3296607296450726  0.2600870867854141  0.7568291035098049
  0.4064804946695744  0.1734011859179483  0.7473647373102332
  0.4285918325614408  0.2482330418827982  0.6722772082413851
  0.3259111727771769  0.2587446246663176  0.9095362433540960
  0.3384258148119570  0.4168828477411982  0.0703023985474738
  0.4276389607430583  0.4120323620080880 -0.0062323816410901
  0.3201638916605880  0.3467770365935497  0.1645173225604890
  0.4183554067592126  0.3358798652718166  0.2552213360656155
  0.4250524979655498  0.4085060635605460  0.1666177280915206
  0.3353081555952940  0.3454679848526080  0.3402844485485895
  0.3545729247931207  0.4160859044051051  0.4258528853057368
  0.3485762712868342  0.3216876540025080  0.4918264595361594
  0.3520639568548397  0.4025714598105358  0.5748943808756486
  0.4417098150512612  0.3269400671521364  0.5788687289118193
  0.3443797004004353  0.3296657355008890  0.6641105738472478
  0.3478997212047458  0.4085251641826924  0.7471516030908996
  0.3351308362154989  0.3390822497856401  0.8370129041812127
  0.3315963209853575  0.4124642780365497  0.9251112319981446
  0.4269250803591270  0.3205097297063169  0.9176867875096624
  0.4201926120653954  0.4236242371385858  0.8426613233863133
  0.3383061417484729  0.5060110778752418 -0.0035649818187087
  0.3468003842817112  0.4962608584464321  0.1621192136461903
  0.3460878376221578  0.5800169387321775  0.2499033111637475
  0.4195001611211004  0.5891235575489298  0.1562503987010830
  0.4149548982673138  0.5144781904476908  0.4227524162876861
  0.3395529168433782  0.4995524578373902  0.5126104956022004
  0.4319229297654660  0.5063770090994606  0.5851472068295088
  0.4240142138309721  0.5916779148775413  0.5100643929174672
  0.3333048247179000  0.4929926580633655  0.6523143598111621
  0.4072154068625365  0.5148809400721673  0.7442680458515579
  0.4066694179099515  0.5970694321193944  0.6572109666628563
  0.3275478135259897  0.5011636894367398  0.8420982402599884
  0.4087960085593023  0.5892612848182761  0.8385167740523516
  0.3218428569112649  0.7486684634178612  0.0915936934959631
  0.4105744166044004  0.6753282603234282  0.0739781491406825
  0.4073065812741892  0.7555182766983306 -0.0069597240407499
  0.3258288052881894  0.7508668860393726  0.2365487365459345
  0.4129147096911592  0.6781125222785759  0.2476476322249850
  0.3390810991500732  0.6778470020309952  0.3407741854202165
  0.4226924944544762  0.6677212311417363  0.4250851074236844
  0.4237030706675347  0.7596048643534692  0.3388657577385592
  0.3283874387403112  0.6738305929842772  0.4932578271983452
  0.3242342297631001  0.7642897350305460  0.5762388807374788
  0.4127006985093722  0.6799933568031801  0.5789607872239336
  0.4214321337411134  0.7619397226479587  0.4917326023567976
  0.3138608762215919  0.6788909066405733  0.6700724340031614
  0.3148312972454566  0.7502384757771078  0.7545104595104343
  0.4117568914244273  0.6626383803277484  0.7485178328712220
  0.4186086216267734  0.7468014196098970  0.6685828270465047
  0.3176009686079093  0.6633690868453866  0.8350227491565365
  0.4089566953797439  0.6628332238508025  0.9274746905808546
  0.4155357675119966  0.7383838493499024  0.8400196214080093
  0.3294489017173253  0.8374014492067788 -0.0023325952639990
  0.4155539843074312  0.8233814786882312  0.0931529605557191
  0.4214002260098263  0.9047285370338306  0.0038900505479438
  0.4205436915771051  0.8206434533785153  0.2438854510143643
  0.4186273861002179  0.9060356033146736  0.1758647895474262
  0.3232838389108379  0.8252945017695441  0.3319248730985196
  0.3246251778915606  0.9165918951062528  0.4081228826453319
  0.4231843169395670  0.8417592965895475  0.4131823155478041
  0.4220920249479556  0.9034422904484071  0.3209885423427589
  0.4150926422972757  0.9073110841421880  0.5028262399573531
  0.3294218893225901  0.8222364816644905  0.6700325122364621
  0.4242866236766472  0.8200805572330887  0.7564783325565736
  0.4167280730026934  0.9024287981626112  0.6707139878236565
  0.3278832984664405  0.8258978146932413  0.8356253670602523
  0.3428448872022321  0.9148523513917852  0.9087464577087928
  0.4946573649052288 -0.0037398616528849  0.0026775395766126
  0.4966084193853417  0.0898285953432311  0.0971544418472045
  0.5736563208443045 -0.0059154539637494  0.0887562217994738
  0.5673448862859666  0.0831429869820761  0.0006676537487987
  0.5885248093878764  0.0801675874909371  0.1785237144243200
  0.5080853693729430 -0.0022757999978495  0.3164889464915259
  0.4887379932060728  0.0908238996627977  0.4055744194196068
  0.5720488948075881  0.0090316111500143  0.4066614398421879
  0.5833146699863349  0.0934342125261203  0.3140900030411759
  0.4831378102565748  0.0052615695675873  0.5010156968331611
  0.5723240149651579  0.0018519029975540  0.5937689736424705
  0.5811115894804647  0.0692819327296921  0.5006572704700081
  0.4794456510175227  0.0816309182916592  0.7486817708654158
  0.5764928857187419 -0.0063964979158469  0.7572876302729543
  0.5773426021048196  0.0774051351026393  0.6841651168939117
  0.4844230854848272 -0.0033959662739265  0.8236412997245186
  0.4849806930925525  0.0936341216619348  0.9165933059181981
  0.5693855508634458  0.0027297574403526  0.9040021513112786
  0.5818009288958828  0.0879586795164150  0.8273153264552553
  0.5052715479258946  0.2445038127435309  0.0912376114080356
  0.5025602317903265  0.1720904958735831  0.1766091779567926
  0.5140273980973894  0.2605428038617913  0.2533060353158387
  0.5154743052769890  0.2340645036337125  0.3991963825878930
  0.5983911590709110  0.1483709442407706  0.4122255842344448
  0.6004702401548234  0.2395938580107993  0.3259100921605770
  0.5021072835948712  0.1509362747753339  0.4953564243185336
  0.5107348758278758  0.2372841391549129  0.5804341597822142
  0.5828050339946184  0.1465210150968701  0.5896106764026690
  0.5728546792201124  0.2407758155599717  0.6757325548734912
  0.4921125060835923  0.1719735481208066  0.8316918446183357
  0.5864271853170929  0.1642742807749513  0.9215232556741350
  0.5941036152090670  0.2359972073697280  0.8287210095166331
  0.5077658343100077  0.3220210260434683  0.0039866960221167
  0.5741360693361925  0.4171891840621802  0.0054263704505815
  0.5094912340236560  0.4116152108551577  0.2584367433108351
  0.5709943539167306  0.4168926570292648  0.1610421404465368
  0.5003641876892287  0.4210748361413935  0.4082554325000931
  0.6007539404845085  0.3300353885734888  0.4081352738102691
  0.5922981513590393  0.4228898186331915  0.3377026052135926
  0.5145462220568893  0.3279316095851867  0.4854271788484805
  0.5062975884597757  0.4200349023868433  0.5800078132030828
  0.5873951524075022  0.4210775223098897  0.4955955097151140
  0.5030485164580996  0.3348648565467785  0.6762579383759489
  0.4934087847751344  0.4318187782808106  0.7613808683465405
  0.5904756030362855  0.3355867514279100  0.7581734340823377
  0.5708265315304625  0.4280334588096659  0.6732277670074127
  0.5021514400420203  0.3232091887664508  0.8293389389259418
  0.5114059400642539  0.4172966162702967  0.9097811909035873
  0.5866279711606049  0.3266254213572200  0.9112424906490717
  0.5000654500032127  0.5077044192147077 -0.0049749050815491
  0.5005476142562286  0.5984460211392025  0.0719143721194419
  0.4935906715251754  0.5022493678658065  0.1615374333894629
  0.4849788395582557  0.5912283396558259  0.2532213323005472
  0.5739892492408957  0.5117876249889447  0.2555930776499827
  0.5713441101064825  0.5914848084270382  0.1648755487327390
  0.4942431802655627  0.5138855451551306  0.3403227169054983
  0.5867583127557870  0.5169328443268792  0.4225410320557762
  0.5728431043218836  0.5136697432901846  0.5778405462871865
  0.5041916062961043  0.5887727860931956  0.7454268567704002
  0.5951348188806350  0.5096511514230679  0.7534054386918457
  0.5920923462438554  0.5921420882439397  0.6605605695290729
  0.5021133151093423  0.5185841198231643  0.8395882187943053
  0.5916843169662981  0.5079296801435407  0.9149621603983984
  0.6035110203331879  0.5905374444016188  0.8343931964738913
  0.5080850830457315  0.7465391773226964  0.0783768352965118
  0.5905531773282392  0.6709671504117827  0.0735010519985803
  0.5971195499171132  0.7516930752592734 -0.0127984456745827
  0.5897714433955714  0.6618430134308735  0.2607755009115368
  0.5987339710259613  0.7405054688271130  0.1725796907302667
  0.4988304777886137  0.6643478602825569  0.3384391117074199
  0.5846637529154595  0.6697016577548344  0.4193398683078827
  0.5115601781818809  0.7542408800610858  0.5859475350825121
  0.5922873858201836  0.6754184316385300  0.7501538060655997
  0.5055379944263649  0.6602463126095455  0.8375629629119906
  0.5053397319132822  0.7523004456817284  0.9143098232552475
  0.5972647300492906  0.6615779864673184  0.9180071337031577
  0.5090712743031206  0.8299631067606841 -0.0027346975806007
  0.5065148051440538  0.9050422837072479  0.0908460901218102
  0.5181291823986530  0.8202020943607047  0.1722816320654817
  0.5858584041060828  0.8289642227579515  0.4107956807824913
  0.5138234624941398  0.8313330990892122  0.4975711006463737
  0.4953234658996748  0.9081395458827839  0.5870604176503395
  0.5770135384638744  0.9252789678927381  0.5000781193860652
  0.5714138277790994  0.8230761904486077  0.7561601039471657
  0.5711272431716198  0.9093029317493351  0.6725119648963495
  0.4959879509735863  0.9049971425886231  0.9067157926527478
  0.6639047335223873 -0.0034299312297299 -0.0095299969070605
  0.6589156320588365  0.0716237907407041  0.0836200393702436
  0.7581264709678507  0.0057763184227596  0.0821002394854880
  0.6745171387882321 -0.0093300146981619  0.1705189628657640
  0.7565931805130474  0.0034840601066207  0.2523786651932960
  0.6645987817454523  0.0032469086515638  0.3215348426655577
  0.6677948433814980  0.0632722397828824  0.5977852831843403
  0.7586130004132914 -0.0031747591674428  0.5926203469460407
  0.7565935668064525  0.0657366906612105  0.5011301442498468
  0.6711131972843912 -0.0144973322443758  0.6860140000442527
  0.7672763674578187 -0.0043541915980535  0.7494681327313191
  0.6761618195093536  0.0042734524996007  0.8307358827339492
  0.7588151588423504  0.0819609438356186  0.8350293614891470
  0.6665268782759315  0.1583702649909496  0.0086658834564817
  0.6588519269815813  0.2476601406141531  0.0907855427096550
  0.7511411598541736  0.1559867788453793  0.0850368900931182
  0.6703205951321887  0.2439187709916760  0.2325358050989024
  0.6750041652160633  0.2413623676539541  0.4144886547665600
  0.7418622370774522  0.1525317313338867  0.4142012542566748
  0.7436665339342504  0.2442985632789346  0.3214594586531269
  0.6719026879682668  0.1490724917104434  0.5061379950670493
  0.6525677215855896  0.2430831983335400  0.5953341753273615
  0.7480211392286356  0.1509920916070142  0.5993603103878469
  0.7400713400048503  0.2443098442961221  0.5138969166420485
  0.6699570124108802  0.2444338043830749  0.7378264998005198
  0.7544515564018325  0.1576719425879295  0.7372628898854243
  0.6752290723948915  0.1554532901044520  0.8306506224382048
  0.6712888193570099  0.2481593839267318  0.9251997421394376
  0.7495002095379447  0.1621556001405211  0.9269543681554716
  0.7380521352523562  0.2498091072872190  0.8311600357138399
  0.6527042368239796  0.3347757522541054  0.0098220653890723
  0.6623700004885280  0.4174115298055727  0.0903022763112430
  0.7531250571251533  0.3317887336155429  0.0941844481696049
  0.7534592332702170  0.4113037082364120  0.0098670270747021
  0.6598001036095735  0.4326408410216888  0.2425608189746221
  0.7439867708314417  0.3422237659858580  0.2330363940591561
  0.6790907572892049  0.3376458005658511  0.3236045895723396
  0.6763623921519123  0.4261941592284226  0.4205206122271128
  0.7499826418267256  0.3348520376426023  0.4164097912637346
  0.6646358637089473  0.3321326064736687  0.5082085680351092
  0.6517269929801229  0.4220852027623336  0.5939472173468429
  0.7486863910818295  0.4190330264067678  0.5178962202510751
  0.6710464643669933  0.4206734868515181  0.7425252948610981
  0.7389907037673454  0.3323961735313219  0.7335498764957656
  0.7416366444532835  0.3366865220312255  0.9269984023989876
  0.7530893664157637  0.4090527970848146  0.8313211146283392
  0.6635533228392176  0.4952575704031490  0.0004480719113786
  0.6589678809014942  0.5778365850627583  0.0748632506681654
  0.7589661212256925  0.5821215743573831  0.0048657904507401
  0.6588669560119859  0.5054676555326875  0.1602952249463799
  0.6727148157912636  0.5755031922979963  0.2567958847372974
  0.7525996165184462  0.5733651040950528  0.1563820684290927
  0.6748099660607403  0.5896213673462528  0.4270758735384272
  0.7552163170961979  0.5036204117876457  0.4286166480252788
  0.7561969300074369  0.5788219899451189  0.3380396802328802
  0.6635521053327099  0.5944721613436382  0.5711635981833100
  0.7504972475320144  0.5076485802647858  0.5891282752178199
  0.7598628578852621  0.5992163262261475  0.5113369396171902
  0.7463190476193640  0.5100870317691401  0.7415716940413369
  0.7463827604419292  0.5947244632660958  0.6589031227942928
  0.6817138422696327  0.5008322022704895  0.8387863950607179
  0.7586389807706541  0.4964749872913511  0.9210363893969787
  0.6674411731714897  0.7602804336872773  0.0805247452803451
  0.7472308680725807  0.6721185776404174  0.0779280758170810
  0.7442305896085573  0.7635574399446292 -0.0041722850395202
  0.6772162876028186  0.6589891248116966  0.1656019917869896
  0.6778539662169272  0.7537328651710327  0.2555441246555756
  0.7497387358019609  0.6668479899836572  0.2490099534737337
  0.7444536840696344  0.7534270238276940  0.3470321985974933
  0.7428944139371840  0.7463280993081943  0.5009431515289572
  0.6692257825146487  0.6843131765122928  0.6604600384222025
  0.6733391710309802  0.7607191713450252  0.7549189922252716
  0.7537783197787733  0.6694501254922718  0.7564337663388804
  0.7589898989062417  0.7608071199307093  0.6592972746838409
  0.7492268294913443  0.6657131643978096  0.9115207892805129
  0.6625512114293112  0.8465001007793739 -0.0133656389019228
  0.6682251669257049  0.9175836936697502  0.0798269026570009
  0.7585456358089370  0.9117928606628383 -0.0076367482760573
  0.6700303912140367  0.8447414807030872  0.1670937248768125
  0.6686123303457795  0.9128748099711487  0.2515190804918293
  0.6706612206210818  0.8397726714221410  0.3356311789165179
  0.6612625750149831  0.9274080917874479  0.4136583263058581
  0.7488626442947288  0.8407523043877881  0.4317305304283620
  0.6600603074586905  0.9222386537156266  0.5843153238405505
  0.7463432837922152  0.8404002291518110  0.5717770045397915
  0.7509181841546692  0.9258319713791928  0.4983723356819431
  0.6647345221055219  0.8320236855269763  0.6659329431673815
  0.6713424179557863  0.9049125652295021  0.7609451698062809
  0.7636943169360337  0.8376612611798883  0.7558274962366509
  0.6688079269249588  0.8302350093970107  0.8441280223510145
  0.6674206444904026  0.9225581257170739  0.9048583051956267
  0.8400075767612059  0.0113256535041569 -0.0030476527312176
  0.8369735628212713 -0.0005265208565830  0.1709345008946204
  0.8389391469347768  0.0930621532648616  0.2441246528742685
  0.9218501518496888  0.0843575039749747  0.1619043624949442
  0.8371889790523674  0.0723817510432280  0.4109411856709659
  0.9176426572906499  0.0879987523758270  0.3313421802644115
  0.9082063228118840  0.0802267286734502  0.5017322918618575
  0.8507609189658929  0.0054267368089881  0.6662898895874870
  0.9241840398022326  0.0127618415479994  0.7497844765236806
  0.8434357416638674  0.0080041346945766  0.8389326056380638
  0.8374459925420678  0.1581984265554243  0.0056137429721161
  0.8399352243473807  0.2467407955091659  0.0884675773083510
  0.9248319395386275  0.2477579853818489  0.0021733291743892
  0.8291563432087469  0.2400248474093750  0.2357342395885324
  0.9299328005275849  0.1735119272500169  0.2402695750834590
  0.8287662763653033  0.1659532953063579  0.3275022184562532
  0.8212947361267873  0.2420233393092958  0.4146838298711590
  0.9210377665150558  0.2390399588031085  0.3304154165328821
  0.8235709586805233  0.1605813488661642  0.5071122270505156
  0.9063122959402307  0.2427711862951407  0.5098029028757053
  0.8282823798824908  0.2484604212196117  0.7393976363369151
  0.9203245964178988  0.1656684160263245  0.7534023933340561
  0.9262471185284376  0.2372352512307915  0.6569091811851216
  0.8302818739441141  0.1717145251152128  0.8364788013502362
  0.8268123443690442  0.2567023269128646  0.9277976196730912
  0.9232708630628731  0.1637710974015079  0.9164223968516516
  0.9273451319379766  0.2528742504285350  0.8362992320967597
  0.8397941381033409  0.3360220915679287  0.1706820068971444
  0.9263794012214979  0.3229180447991855  0.2457859570392752
  0.9262945763768836  0.4181586162149076  0.1617773320652663
  0.8232653102777230  0.3351045481878979  0.3164685240312692
  0.8310154069019605  0.4175527008652382  0.4165964998674420