Mo Cu                                   
   1.00000000000000     
    23.3425011166024206   -0.0094378087218539    0.0136460521134799
    -0.0087638644581240   23.2217342506412905    0.0176548293093085
     0.0135216064026348    0.0190636855035836   21.6651728997244248
   Mo   Cu
   454   410
Direct
  0.0778300189114738  0.0868126474125942 -0.0022115028668309
 -0.0083896488713081 -0.0011445259220369  0.1520091408628080
 -0.0070279344837393  0.0814726557387242  0.2474420080145289
  0.0673598417702364  0.0008894056608338  0.2404613847443014
  0.0006978016423992 -0.0035004373523005  0.3402777294262316
  0.0832275237586961 -0.0009678076908153  0.4160151731825869
  0.0065985069609639 -0.0059124630796497  0.5047650161653079
  0.0059786969348235  0.0834686939682975  0.5803168648806460
  0.0920247848793739  0.0024346985133432  0.5933002360386788
  0.0036958167058916  0.0138918004395832  0.6778266929391342
  0.0870646441787916  0.0102196086294688  0.7559922447891303
  0.0023418566324100  0.0051146389765873  0.8267356723338762
  0.0774135387540691  0.0002200633209575  0.9103574082594198
 -0.0047565216673667  0.1701220858336684 -0.0090336238661636
 -0.0020928415412238  0.2430136470222567  0.2588110328053085
  0.0710853783892811  0.2512548525145559  0.1710737812693293
 -0.0013521826284670  0.2485032211161533  0.4172344060390943
  0.0837784527762704  0.1601377105841060  0.4222583139504435
  0.0803320142085633  0.2352215520381696  0.3390108107888055
 -0.0010443370714353  0.1696515492705073  0.4999092756786996
  0.0881625260674761  0.1681930713427179  0.5801049189255224
 -0.0029213596189113  0.1637601063496422  0.6615645651523631
 -0.0026907372994982  0.2551179628827924  0.7585699456831841
  0.0832618008267592  0.1817791896758792  0.7530495613056480
  0.0807998351935222  0.2523076108196639  0.6627439329763947
 -0.0071348932255594  0.3416045232880656 -0.0006073142759325
  0.0735038307532240  0.3398781293190161  0.0786960796631885
  0.0007141839363593  0.3405151884311354  0.1628113913627841
  0.0026637204599544  0.4240599673363324  0.2625882060214979
  0.0783742193429391  0.3315322904684558  0.2599034449273833
  0.0740208637133122  0.4271749142990177  0.1695624705925899
 -0.0023663249568599  0.4111347404648744  0.4288306768124341
  0.0006250359263879  0.3289827814336729  0.5029796620970245
  0.0031169080213355  0.4142242459048925  0.5734061275299780
  0.0866477657339522  0.3267585847158855  0.7502446439472024
 -0.0045296661731808  0.4241728315388137  0.9156508768669078
  0.0779716985370576  0.3432091390838230  0.9271762037949104
 -0.0093418026086085  0.5033285923759284 -0.0034918566709466
  0.0754943167907053  0.5861410032043709 -0.0091073254756488
 -0.0026766420334972  0.5117351079549988  0.1690020180980788
  0.0705161115604834  0.5862102093349377  0.1660804166112183
  0.0048262046728315  0.5098163744636808  0.3424211612260745
  0.0896940940092543  0.4994173213675624  0.5716722853038684
  0.0823624927034270  0.5897679824619482  0.4953747240916151
  0.0054209057971931  0.4952877380620465  0.6567274904448404
  0.0019582190836204  0.4945043037831535  0.8230690018925076
 -0.0049457770281771  0.5746455072335640  0.9109713914773958
  0.0871896819685883  0.5753258519692340  0.8262491805427913
  0.0769062414326984  0.7497331103043043 -0.0040437625823409
 -0.0019098097910510  0.7520581494681469  0.2570110051079694
 -0.0032300771042510  0.6755451980409243  0.3437994156304573
 -0.0013476180719980  0.7630788950455569  0.4289645609984581
  0.0784807245221492  0.6807092432325966  0.4154710009886046
  0.0858647256642418  0.7592964705119805  0.3353854071083862
  0.0842411473823310  0.6603338259426729  0.7548988537526599
  0.0883882412928510  0.7425071751383634  0.6702147830495561
 -0.0036338982387242  0.6596814568537033  0.8333348925394634
  0.0807976783647730  0.6679599286784548  0.9117073306458737
  0.0844660016829297  0.7482255765451135  0.8314159856283593
 -0.0113718933215583  0.9124732805992392  0.0777091191703075
 -0.0026089099391843  0.9075743578536931  0.2451832801625978
  0.0039719201316095  0.9099262918400037  0.4229580922766594
  0.0811098907376027  0.9050101471756855  0.3318083846325153
  0.0096602806316725  0.8412900981154388  0.5184143283926782
  0.0956488107768591  0.8401752586087631  0.5942633075645718
  0.0066741470370571  0.8295580328602867  0.6642384491972617
 -0.0005552157332049  0.9176824466820889  0.7442460892188090
  0.0856112298438654  0.8283573514330224  0.7494249910231118
  0.0774079241408083  0.8273141970397545  0.9126637086214235
  0.0779144435410667  0.9117122643788291  0.8268389716849148
  0.1584976045138544  0.0006591922929047 -0.0085331852228241
  0.2401726993043084  0.0735242672860532 -0.0060524549897364
  0.1591934631942580  0.0766663330707117  0.2414866309903894
  0.1614869781597537  0.0005890496803418  0.3274903334588050
  0.1669889822953103  0.0845251818553450  0.4069748350236658
  0.1715477492845379  0.0048980042686522  0.4942231766192745
  0.1698199684110745  0.0834642895353611  0.5948140947113580
  0.2553743469938439  0.0079568547141882  0.5970342022179118
  0.2583256588366968  0.0762897724974000  0.4986430515682915
  0.1705847435506505  0.1017359808941107  0.7531611107253425
  0.2608419790863548  0.0052572210519794  0.7647995824841223
  0.2609424179932908  0.0889726527134369  0.6865276566784202
  0.1665072239651272  0.0035103002878061  0.8334727009923466
  0.2538517692791650 -0.0008592237035900  0.9068904864559788
  0.2561360689419902  0.0900556425326988  0.8445946720879951
  0.1539976167615400  0.1640359979183042  0.0056327586769676
  0.1533220045732073  0.2521283435287749  0.0869638057418211
  0.2441080862551502  0.1584607366815155  0.0762807588661738
  0.2450924917916625  0.2532713166725639  0.0158898735379774
  0.1576980724694904  0.1600461429120791  0.1590132630837573
  0.1628651206628185  0.2386490313543902  0.2403052785225984
  0.2458257385793693  0.2449668521492380  0.1581394932422128
  0.1685817521630665  0.1566701370372590  0.3224317466843358
  0.1738166117521394  0.2382793519037335  0.4181929624016353
  0.1781157032065231  0.1569151332427607  0.5024719865359997
  0.1785403991826520  0.2486284072548511  0.5730289338060595
  0.1758004468902403  0.1762136679831007  0.6657429367254819
  0.1719259288529439  0.2559220186258599  0.7568454037170655
  0.2647067489933670  0.1782400041264126  0.7694215603153772
  0.2465156479628140  0.1721569348944841  0.9304381621062801
  0.2540349231387190  0.2570710238987153  0.8503610972788611
  0.1511573525028315  0.4201128644317348  0.2583271674618212
  0.2424517713193788  0.3295843913433007  0.2495767948193501
  0.2348863624514531  0.4202980915115136  0.1795450587526892
  0.1677617669695525  0.3216756360074048  0.3376286930088772
  0.1684971725609934  0.4127515551377661  0.4099107163684730
  0.2637083943413192  0.3254141653815703  0.4061402080587360
  0.2522359868787999  0.4180116259302610  0.3259474693029651
  0.1738984722479425  0.3266150670300078  0.4900808808041815
  0.1791443941828227  0.4157706183377244  0.5810434507731108
  0.2633895501918005  0.3308869074236351  0.5715554108200696
  0.2627900584562124  0.4179753504155743  0.4805257223215116
  0.1740956557252894  0.3244820776941629  0.6569857293684880
  0.1697113861610593  0.4045213479751681  0.7438699678226924
  0.2569700845813372  0.3303259753988992  0.7587579398982084
  0.2543834321374683  0.4199459111810542  0.6695463184143681
  0.1643731802272532  0.4218101652708057  0.9224666318326560
  0.2414665739319045  0.5042093105374384  0.0960943670261303
  0.2426622850253159  0.5812853412801461  0.0038993052691789
  0.2377310305407872  0.5117417681428212  0.2488291007209248
  0.2366017866723178  0.5961353873693350  0.1616537383537368
  0.1592423723181711  0.5059183439420785  0.3416271782916359
  0.1640453678610470  0.5868121968578539  0.4235144901805762
  0.2578133402122971  0.5043699412479582  0.3988655951044141
  0.1727609679748149  0.4971223314658678  0.4903581153378855
  0.1668327805398171  0.5801376095370578  0.5722843601542742
  0.2559156762336485  0.5014607754315761  0.7563994649015551
  0.2544996945170815  0.5803719775190243  0.6629019064897650
  0.1649138100423971  0.4891401628780647  0.8259977551737877
  0.1612090148331215  0.5768890491165969  0.9183019920544218
  0.2475904234559214  0.4927497278244518  0.9271227032507587
  0.2482715910785410  0.5806070939172416  0.8423038023190084
  0.1594245282250695  0.7520045771729379  0.0793072098703952
  0.2391352043194466  0.6767189870995399  0.0721183460348673
  0.1563282021177463  0.7518352028520334  0.2434484234953314
  0.2370548018410547  0.7510467223749030  0.1630755319098106
  0.1717808554923071  0.7457268413977457  0.5928894936162115
  0.2531301650034109  0.6617270818587325  0.5784854705003721
  0.1759891195856796  0.7403749652686079  0.7426085987255471
  0.2560507883460547  0.6557427643444084  0.7495388784284681
  0.2569039674219037  0.7436580828589454  0.6641908465659062
  0.2413960485464165  0.6664363303786064  0.9259811067710498
  0.2501942180519650  0.7461694878076998  0.8376542203337939
  0.2421381635932708  0.8342365757970238  0.0793704768340623
  0.2383112781409083  0.9218143265768922 -0.0091520068839080
  0.1509361873846898  0.9216308399912326  0.2481739254024249
  0.1663741660318151  0.8334301310328091  0.3310948011303549
  0.2439426933505714  0.9160076597835873  0.3259158398139134
  0.1754124253121938  0.8347931423495911  0.5081594107113543
  0.1767786227742526  0.9282491496137273  0.5949029747390784
  0.2516709081636276  0.8369780541271347  0.5854254959172249
  0.2522106417041714  0.9226941322214139  0.4903125014494421
  0.2593876286889449  0.9205338211993521  0.6805726761843509
  0.1720494426534819  0.8267922044658959  0.8238269124849907
  0.1590485310425703  0.9099941754691124  0.9050717583802317
  0.3324853844931019 -0.0119496799905176  0.0103278931274381
  0.3310344213206646  0.0770334520550337  0.0759125321251895
  0.4264471604599768 -0.0114188619723833  0.0873816491413292
  0.3302910285888541 -0.0032979339589921  0.1561816490051998
  0.3356990634027550  0.0772187913626025  0.2331354357463712
  0.4194485531798087  0.0021028964974412  0.2367026670992120
  0.3314414419224277 -0.0017947846862502  0.4918884691738474
  0.4132981933690119  0.0018483681096235  0.5886593483143205
  0.4128916846147139  0.0778223246265545  0.4998415678207198
  0.4268025303735098  0.0038519006035624  0.7552265713308314
  0.4153817625041782  0.0904952484957421  0.6651277739267617
  0.3414062728625727  0.0780492960286032  0.9359174306414793
  0.3315115036143919  0.2558070093469650  0.0888133888703807
  0.3305594050239599  0.2387484239771363  0.2451304468094316
  0.4155495396724290  0.1558480783056914  0.2421652885117805
  0.3321333755561726  0.2383526879162203  0.3997553793138939
  0.4136437951960923  0.2402856560719437  0.3245599178708857
  0.4166781332584482  0.1649916218986657  0.5789005582580551
  0.4138454408325946  0.2423965309249258  0.4834667407078412
  0.3414099613976961  0.2548900681501038  0.7575038921752535
  0.4134681075435241  0.1696252799056797  0.7594561563059418
  0.3416410072694344  0.1680782309525261  0.8636289603186165
  0.4108731144426348  0.2527849873566241  0.8512425754020483
  0.3301006867008447  0.4124841219140101  0.1004499605214972
  0.4168427921340868  0.4165344435179975  0.0202632069685046
  0.3333393686915473  0.3291829862779884  0.1765195091503085
  0.3334025206255558  0.4228643075966746  0.2421570444934401
  0.4255395565286164  0.3304681874623788  0.2481246107336021
  0.4252384626270381  0.4175737796806582  0.1668515591047084
  0.4173190245207414  0.3341674995692960  0.3961431247498745
  0.4192365960203232  0.4234400494293102  0.3153673817929041
  0.3456483232318814  0.3300777420640492  0.4886516980474453
  0.3287066634407653  0.4191574840511891  0.5787776336731228
  0.4129210454257083  0.3249496449806703  0.5870602171403742
  0.4115055627180267  0.4187496213046399  0.4926591338626215
  0.4158562430180662  0.3357670470806204  0.7486622470952938
  0.4090228979355831  0.4155763634132268  0.6627077011854173
  0.4215313239642816  0.4146919481224619  0.8454378990666276
  0.3297550778456964  0.5950835175092380  0.0848653602069502
  0.4189929210279770  0.5049783684149688  0.0917489004829698
  0.4186818899517212  0.5862100350973706  0.0076566786923053
  0.3301301269928628  0.5093131383857726  0.1654454806316839
  0.3279728402593458  0.6034007336365996  0.2351862300350435
  0.4302779563424995  0.5094132255369759  0.2343887427256642
  0.4241045318220480  0.5992559949632198  0.1652327945309449
  0.3340410517462957  0.5193175782738682  0.3100595690444327
  0.4227362238969307  0.5883856989656387  0.3241797682766118
  0.3432152126466248  0.5798042812757288  0.7524522764230704
  0.4153729613238491  0.5748306127772601  0.6619920221018588
  0.3371264489876865  0.4913787057819692  0.8447823627591029
  0.3357386589151115  0.5806415574719840  0.9284278594180736
  0.4133255514697071  0.5723855792359996  0.8455230908831921
  0.3338825365226390  0.6771509669097386 -0.0035968524456733
  0.3341631543163975  0.7637165105369986  0.0725839723180864
  0.3340947891534088  0.6858355468192695  0.1564313544127458
  0.3306949879445688  0.7423162911105995  0.2529542805392341
  0.4278951398812738  0.6748522316511990  0.2544830858825026
  0.3279060850122247  0.6684089230344270  0.3375067389878725
  0.3291773921052718  0.7528816362932800  0.4122902796157465
  0.4188176128927148  0.6673371058440400  0.4108291571810851
  0.3365875677186705  0.6695836650869635  0.4896318042951717
  0.4090851491008152  0.6644492137063431  0.7532398501173362
  0.3349572965192863  0.6684045051669325  0.8475191276495192
  0.3355518908968372  0.7550091501374732  0.9196539007889094
  0.3298446470521142  0.9025318301564651  0.0924931130116624
  0.4188599563353760  0.9104583858145399  0.0112115471367862
  0.3349607863885021  0.8223135595309801  0.1725492817189625
  0.3301107752912684  0.9133060909028593  0.2448694489142957
  0.4237610818812526  0.9031936402564873  0.1656164183930458
  0.3285543230143396  0.8315307455645131  0.3234055005281219
  0.3314916107015208  0.9169262412190056  0.4025344647703316
  0.4171713588986630  0.8379965234927776  0.4140345958447468
  0.4226591179126784  0.9186723669816751  0.3202257524617378
  0.3358088655365442  0.8357105598830659  0.4947060996890715
  0.3299821483264554  0.9209420953096482  0.5886068089392431
  0.3433596477662040  0.9150843422443449  0.7584057490330762
  0.3367774675407038  0.8316087552900703  0.8357320246183946
  0.5966860281043076  0.0858884431695024 -0.0036273373559039
  0.5102987422813624 -0.0038479900469028  0.1643654353891701
  0.5899181824343155  0.0739545244413365  0.1664985717783141
  0.5058530656898949  0.0009395675084728  0.3274293159232380
  0.5010806973845272  0.0786341332198399  0.4182506803664584
  0.5894053652723845 -0.0081117883367802  0.4158165587399584
  0.5871114184258044  0.0777164973035434  0.3240011952148466
  0.5037811364927299  0.0875155325551810  0.5736900118533830
  0.5845135084464653  0.0825012394374912  0.4950992584454184
  0.4980380514583511  0.0057796268915226  0.6634988616018277
  0.4970826398329016  0.0979896801526098  0.7572845734682828
  0.5686933302801755  0.0149471162208655  0.7620959631470924
  0.4951974854985253  0.0008941327641171  0.8453547999829986
  0.5829153447636642 -0.0007296827345370  0.9165297321210091
  0.5827552835059363  0.0916128282742549  0.8498990414502381
  0.5031910876815235  0.2481989867273887  0.0933905164952187
  0.5857082922132753  0.2498563138145327  0.0125945818489449
  0.5010770338643478  0.1595479489981461  0.1583871230539705
  0.5839966621110282  0.1616272058801257  0.2344454930586142
  0.5881754700130899  0.2539684236045743  0.1638780460327202
  0.5073595897430877  0.1575469311512388  0.3279186257789957
  0.5047257564375468  0.2457524871421626  0.4051432051009239
  0.5817110549187928  0.1641233053142260  0.5778810571898323
  0.4973331181634146  0.2418509577698626  0.7526175235975467
  0.5800423912398155  0.1647352685630231  0.7557576989266805
  0.5827775161597475  0.1741932708404360  0.9245661048284087
  0.5087303018459308  0.4167597365257485  0.0843446977255089
  0.5900253814851871  0.3386423038454316  0.0843064681587885
  0.5909518934810509  0.4152538542503676 -0.0040877147699166
  0.5073414461167812  0.3288378438900387  0.3246813562891404
  0.4994731926659867  0.4149470037881601  0.4040477097606511
  0.5791143286575174  0.3293670255780708  0.4148391950004363
  0.4873528301044995  0.3311947027736284  0.5022769389646263
  0.4991040623338587  0.4152532148059512  0.5838072929014694
  0.5004312567584569  0.3278317730640137  0.6663028405531791
  0.5832081083984132  0.4103619042102712  0.6681087536469227
  0.4927023195232597  0.3240440424893573  0.8366456506497054
  0.4977973442687270  0.4164155256491581  0.9293777341904704
  0.5824679756941177  0.3273748676619637  0.9211303322131831
  0.5758922314909060  0.4144145749377743  0.8421687806565150
  0.5044066793025520  0.5084860642256739  0.0087015144110644
  0.5083314526372722  0.5975542427238015  0.0859226076498078
  0.5188428374299585  0.5088168969768839  0.1587530301719002
  0.5861365020147402  0.5062416164212528  0.2578205098580519
  0.6008906640853403  0.5853902020787588  0.1712598788099830
  0.5798620035210139  0.4974155477272379  0.4123388102793559
  0.4972966462072265  0.4940879110229349  0.4968408031666107
  0.4966910074325257  0.5751696551394794  0.5767797231604329
  0.5824491130137558  0.5827836934679705  0.4973690466406523
  0.4949608284793547  0.4948380037495270  0.6634782472195691
  0.5853341565829275  0.5009668961023216  0.9228463075336860
  0.5099381167845456  0.6679998398909339 -0.0005338802976803
  0.5153995388119200  0.7441957959917956  0.0761757116466880
  0.6003503080547214  0.6672611439511462  0.0869199687427282
  0.5947416968181528  0.7542556186811687 -0.0088852543859606
  0.5033837027585030  0.6747622542195550  0.3361336875212886
  0.5774128309610380  0.6767114710217977  0.4278296799818583
  0.4931738312387821  0.6689051834644839  0.5026608229592082
  0.4919134134461138  0.7509948238245240  0.5842892724156342
  0.5835358942661665  0.6637053006122819  0.5873722997619032
  0.5832072592903141  0.7544145545511398  0.5101038314868440
  0.4923382871427753  0.6589698251165803  0.6647629442638955
  0.4900199499984245  0.7472630465480150  0.7449325183386084
  0.5784952921574401  0.6603823526946745  0.7435162166407546
  0.5800318598477012  0.7473743421777213  0.6632197092940113
  0.4959522010056909  0.6668789510262015  0.8239508263227651
  0.5943660387040065  0.9063367406736318 -0.0071444947802845
  0.5078455745045120  0.9091072558668353  0.2410902437858774
  0.5924115076897574  0.8340863879265726  0.2512009291897572
  0.5787792870643168  0.8320848770413805  0.4259073896897858
  0.5857727743516771  0.9126867999358891  0.3358958088073717
  0.4919957251228870  0.8375570294889271  0.5018739459363907
  0.4892089308259760  0.9103158633318160  0.7581348024983905
  0.5779842388228867  0.8279390018110157  0.7529163868441622
  0.5698754934162810  0.9202269723201238  0.6787686588947551
  0.4934654014396705  0.8294931019026380  0.8321666081533630
  0.5831001614634216  0.8320312000668515  0.9076983323959100
  0.5859541304744593  0.9159807688685775  0.8299084342273058
  0.7611699706677352 -0.0057139781649851  0.0863561911277380
  0.7527843422075747  0.0816728987096139 -0.0034092197891032
  0.6643880339952980 -0.0064073736915465  0.3331224794176139
  0.7448910506179031 -0.0054694208238707  0.4192146893212517
  0.7498907918977665  0.0750372929995899  0.4985943752194524
  0.7459409606918395  0.0866852372689460  0.6705786451565877
  0.6734651142952741  0.0880206531231183  0.9194024362241203
  0.6776045741037641  0.1713517565738801  0.0096054049610932
  0.6765643307090677  0.2525220733427214  0.0929174561409400
  0.7595624905436100  0.1631285649487683  0.0876335022336477
  0.7563628509948189  0.2508254496538899 -0.0038720373543827
  0.6716149222195295  0.2544348516651534  0.2416000086809257
  0.7550112656207573  0.1606143503593322  0.2560223717530864
  0.7577997786225562  0.2451684877315873  0.1739439644345311
  0.6646082842226740  0.1592099070867592  0.3242963417893045
  0.7455967056218534  0.1636308310416295  0.4044222412398589
  0.7490025736035013  0.2477804339313804  0.3314588710832790
  0.6698697499850412  0.2554333419235619  0.9161231601281768
  0.7451636879614671  0.2560154058361472  0.8307202208452370
  0.6825711020372630  0.3363665048972072  0.0014413045312061
  0.6784209918030260  0.4214005098021116  0.0845584372352560
  0.7686818758781384  0.3391316225357371  0.0870354871476093
  0.6804418338331195  0.3470973467714472  0.1675665433091033
  0.6747814460106347  0.4227063975717621  0.2566666669518498
  0.7645813662019154  0.4311428008100322  0.1755955520532973
  0.6608284787836183  0.4082492373116696  0.4148758401069480
  0.7421007120101026  0.3331917256921762  0.4192538323670729
  0.7483736367578308  0.3285652633832428  0.5878910209492616
  0.7523283183114237  0.4103691250609411  0.5008465113299001
  0.6571161208963971  0.3263979782346717  0.6638240296071428
  0.6578486992106359  0.4188579698993357  0.7535630250679101
  0.7438832365368455  0.3269131984242005  0.7405678102375383
  0.7443320609402264  0.4138732428196494  0.6636139869003754
  0.7516584000700745  0.4127536874455038  0.8187964379171081
  0.6728613504641976  0.5013734098016883  0.1712349215389943
  0.6661838866466263  0.5011282002757567  0.3414354143177309
  0.6663816842158807  0.5847893511779886  0.4271664625009098
  0.6615615755614975  0.4908614472831014  0.4945912554644339
  0.6614895166286486  0.5815355065366792  0.5826927114392890
  0.7483688015498122  0.4941761501663338  0.5761035050797746
  0.7479003774029926  0.5843616652219700  0.5080986743312496
  0.7457140449645396  0.5771870943772051  0.6574202908067086
  0.6680148657232953  0.5053696282589565  0.8290032381558549
  0.6689347190274096  0.5807746820076545  0.9125949227643868
  0.7554242588882889  0.5008402344348901  0.9113939994150052
  0.7517831155535197  0.5820535717429370  0.8150594591837769
  0.6684011723731109  0.6686068599600375 -0.0089438524337214
  0.7472428016751408  0.7451300255655006 -0.0120572877989209
  0.6737448103336736  0.6669857281825807  0.1723024750305149
  0.6728080208029630  0.7550932695280531  0.2560859374987703
  0.7529338832156229  0.7535517910910385  0.3376737853350378
  0.7517905832337355  0.6691708869304127  0.5892453895336885
  0.7501012977380340  0.7565498898082840  0.5048226039417102
  0.7458907405110765  0.7503594598412581  0.6701464829024033
  0.6655985133528273  0.6524474052922880  0.8252123595859003
  0.6787794865720388  0.8271073201102623 -0.0029460260688963
  0.7580992828399941  0.8354686855826008  0.0810385475540758
  0.6645113440895127  0.8370626444842787  0.5124850766553150
  0.6560854035628431  0.9217734645946908  0.5995599093498625
  0.7486711151102514  0.8322493180698886  0.5952178640190562
  0.7425930892578209  0.9182169795928845  0.5165253494468331
  0.6575712432751599  0.8311071927930385  0.6666177119565988
  0.6617139173560997  0.9242788176879285  0.7474479282937864
  0.7492030132656913  0.8319980634299838  0.7467045149519016
  0.7451021047553468  0.9236518405917518  0.6733976067517903
  0.6694105531463856  0.9154347952071188  0.9124370889621854
  0.7441554549551440  0.9168468863338509  0.8251548894789359
  0.8350343056877119  0.0837499943736088  0.0735269505640133
  0.9166098316597148  0.0852316670463246 -0.0129374362896221
  0.8425987795674672 -0.0017130305506634  0.1718890157082248
  0.8373024463932454  0.0815457807692210  0.2536445423570863
  0.9242590731820214 -0.0060125108891998  0.2558620155291069
  0.9142297088533274  0.0833967131730723  0.1547160870779926
  0.8272902946519122  0.0750407313759608  0.4112165380611573
  0.9127995388216051 -0.0061288469918578  0.4186924263889432
  0.8251994779269212 -0.0027773795206200  0.5184355842768559
  0.9151615244136886  0.0046981621952616  0.6017503943099546
  0.9093141297204791  0.0777806074892441  0.5065147216670319
  0.8225229427527112  0.0122513843100415  0.6732587904086655
  0.9095301804834830  0.0091837704153012  0.7553040041762339
  0.9093455094644909  0.0953115848093777  0.6711584832504462
  0.8244341879633609  0.0032901843931887  0.8301473412173744
  0.8310025581619093  0.0861348599215760  0.9081450868701276
  0.9230703040797764 -0.0010659661764553  0.9077667741716899
  0.9136953648155755  0.0893952895311696  0.8369903436550263
  0.9175469008455781  0.1725968206742865  0.0769302428472345
  0.9136305101867775  0.2546922911410115 -0.0040017665370373
  0.9166697195045406  0.1616357836641550  0.2539251091521850
  0.9195684517009555  0.2492232075586121  0.1707498439482718
  0.9110913013902499  0.1557452461902201  0.4240822921801015
  0.9159540921163070  0.2454459560369410  0.3411904944174401
  0.8263082440895431  0.2461881855003181  0.5788296374181306
  0.9101675340564603  0.1724046784509803  0.5791954545259484
  0.9210650797143293  0.2473183089238022  0.6736270723431884
  0.9167017630997809  0.2584649816750311  0.8249795394701608
  0.8344736917088065  0.3349505057325878 -0.0053207366643664
  0.8359664639109130  0.4285056263811554  0.0882571400082970
  0.9074476370890504  0.3402605185397748  0.0910405352274743
  0.8329312041672288  0.3353765789920266  0.1797328864839012
  0.8381111935014462  0.4278794225869649  0.2650843641715502
  0.9218174848560218  0.3349434734488692  0.2534655921491158
  0.9184818827348927  0.4116330698743085  0.3397134772282180
  0.9096833452607201  0.3217494040832496  0.5825193779446952
  0.9120514419327017  0.4154312116826463  0.5026633309226159
  0.8356150717091804  0.3255837608200083  0.6708976142255342
  0.8339897501869983  0.4178228729905810  0.7385118918334613
  0.8306317207323021  0.4181607247468198  0.9043620625714863
  0.8357464868811650  0.5955400525833023  0.0862891545976325
  0.8342464295681394  0.5932143514002024  0.2604678770651820
  0.9225319007306122  0.5104382255011269  0.2646021243169312
  0.8323902611538699  0.5102522899681871  0.3444121826379128
  0.8310336126352911  0.5907975452706701  0.4294957343459785
  0.9185573332205240  0.5025032462077283  0.4109895317596620
  0.8388057657675007  0.4963786418010800  0.4975714526545925
  0.8354713138710268  0.5777833359039871  0.7343933063899500
  0.9229267876151367  0.4934963005191274  0.7365535820931186
  0.8310627178161846  0.5813895830490535  0.9050843288007021
  0.8299788982676112  0.7454374252157855  0.0791484346632571
  0.9109045743794610  0.6681714513618457  0.0799988263266209
  0.8286104634745914  0.6693029479435914  0.1695135736087527
  0.8295526075644138  0.7523013512598433  0.2521476387823627
  0.9148662045033470  0.6778700526773775  0.2550092832848022
  0.8330592516676929  0.6686716025427251  0.3439753341668641
  0.8344701875122854  0.6737000736590754  0.5097740573541916
  0.9195043712586103  0.6696274923449237  0.5851237006617469
  0.8389458919644851  0.6649613019144416  0.6622824760678410
  0.9228013816859066  0.7455837730192981  0.6689399080189041
  0.8362045043489232  0.6596678758027327  0.8186459201351816
  0.9162807921087172  0.7432199568661357  0.8247659138912786
  0.8245585178805797  0.8233455124931156 -0.0111896985940497
  0.8352517411649059  0.9157422135352113  0.0768615544638652
  0.9106223787198271  0.9131875192077368 -0.0112034232029430
  0.9159538904178177  0.8277166301109569  0.2538382252432867
  0.9165731179277986  0.9041293035256842  0.1620725769189776
  0.8282597595419410  0.9231181158017921  0.4179834288780439
  0.9138033831585733  0.8449201088163291  0.4298188146890229
  0.8305406795038934  0.8412985453867142  0.5088892666801252
  0.9195084697727762  0.8350315199383793  0.5929654434713920
  0.9167412585051584  0.9243360185882180  0.5178339616580098
  0.9154018335946758  0.8276036889179209  0.7463443751172779
  0.9153334952611701  0.9192390674235721  0.6745569900615126
  0.8336285774479134  0.8233814995498484  0.8307322468955212
  0.8281714039146489  0.9089367554696617  0.9052342743689087
  0.9180709734355011  0.9125254627589323  0.8307186424738471
  0.8357914343157931  0.7557041377630747  0.5895571428562927
 -0.0055427511154946  0.5906089607405827  0.4253956173103220
  0.8225561731006465  0.1642646547346985  0.4969360852568923
  0.3351960696416176  0.7473792638901994  0.7517039006018974
  0.7531966803592927  0.3408810174567541  0.2637546637190852
  0.8329125402934922  0.8320362360058575  0.6704793051862327
  0.5023314573709173  0.2443934744791927  0.2416692551073632
 -0.0057450457373521  0.7489164745689940  0.0776555320798647
  0.6621852571563791  0.0883363179809580  0.7545815165733197
  0.4231769972341571  0.0871854753600069  0.8516842516182325
  0.6662041115054209  0.6658593659953410  0.6704868791938290
  0.1655127886128071  0.7521771043634439  0.9201034399142720
 -0.0035108731048031  0.1562379071456797  0.3411860258172998
  0.1747833281895938  0.0052612454473302  0.6846640513021711
  0.2602444008560664  0.2501412432837200  0.6665729946147753
  0.3355153156581164  0.1715829420506736  0.6686455053378069
 -0.0009958945229949  0.5953651638719437  0.2575612367220188
  0.8324897208582004  0.7381157685868314  0.9079792577449084
  0.1576284483147257  0.9155331757816031  0.0794214552939290
  0.6746052698827679  0.8343509880641536  0.1653080814774863
  0.4133920848972246  0.7523437289650908  0.4993287342396190
  0.6730801319495688  0.9118753965194745  0.2470627950480640
 -0.0078708065292747  0.6679253140288441 -0.0058347138280479
  0.4174800493805393  0.9175310421503635  0.8505692239253130
  0.0852313011003298  0.2513544378388483  0.4992009705665454
 -0.0009592703915781  0.1725790011961280  0.8414192094932000
  0.5118098515764737  0.8245159023108987  0.1620703546347325
  0.3514049387309640  0.0044121250621028  0.8437586568666849
  0.0032772756479564  0.5862768999427000  0.5821532420530092
  0.0850337255872717  0.2578537259820083  0.8449744434467983
  0.3358318867606123  0.2444252658395779  0.5805303244202795
  0.0054766646352197  0.7450450968020401  0.5824927504809013