108
Lattice="12.149999999999999 0.0 0.0 0.0 12.149999999999999 0.0 0.0 0.0 12.149999999999999" Properties=species:S:1:pos:R:3:momenta:R:3 pbc="T T T"
Al      -0.08498700       0.04076819      -0.08774261       0.36994240       0.39990723      -0.10725978
Al       0.07411287       1.96118436       2.09244445      -0.12075521       0.23573084       0.75388731
Al       2.10335141       0.01536809       2.02004179      -0.11950014       0.96687082       0.69265915
Al       2.06181043       2.02406033      -0.00410020       0.76979180       0.47891446       0.72974810
Al       0.02031121       0.07884956       4.14033660       1.31911254       0.31845710       0.39235662
Al      -0.01682260       1.91341288       6.17074424       1.34563751      -0.41816432       0.75176813
Al       2.10171305      -0.12821058       6.17933201      -0.51862076       0.43225504      -1.16945621
Al       2.08605501       1.85097394       4.25997994       0.57565223       0.46206740      -0.74069617
Al       0.04308513      -0.10412030       8.06472621       0.23701489      -0.42391235      -0.76449398
Al      -0.13475056       2.03681957       9.98717011      -0.11944121       0.75880602      -0.22899924
Al       2.05474523       0.14543664      10.09283298       0.72368495      -0.65703150       1.22974137
Al       1.89283006       2.04444694       8.02651240      -0.59777539       0.30454715      -0.30366377
Al      -0.02136672       3.88723626       0.01475291      -0.09130309       0.23778990      -0.48045794
Al       0.01673074       6.06530982       1.99810754       1.06875576      -0.42270546      -0.62670759
Al       2.17384991       3.82766226       2.14780631       0.31623523       1.04075590      -0.61598206
Al       2.14736919       5.89722290       0.08565343       0.79262749       0.48443765      -0.93393811
Al       0.09178160       3.89920554       3.93086732       1.30168492      -0.50822225      -1.25925713
Al       0.06599719       6.25695530       6.08177942      -0.13021257       0.00999213       0.02790208
Al       2.06888259       4.10696314       5.96888931       0.57344641       0.40908716      -0.30629696
Al       1.97898184       6.12571660       4.05150942      -0.69318805       0.38566487       0.56347186
Al      -0.10179405       4.11245580       8.03934492       0.57240137       1.34790864       1.34290615
Al      -0.07067792       6.13887500      10.24767228       0.24439581      -0.63097834      -0.69703460
Al       1.89013909       3.93865292      10.02892169      -1.25632706       0.04603100       0.05310318
Al       1.93007724       6.04620707       8.09202161      -0.52654382       0.18819480      -0.60092568
Al      -0.00575835       8.17143819      -0.03110769       0.11285777      -1.52621510      -0.87172064
Al      -0.01855845      10.17984757       2.05262315      -0.68481042      -1.18387548       0.09913284
Al       2.04125733       8.18442902       2.02130281       0.08904289       0.95673456       0.00920923
Al       1.76292738      10.34075825      -0.05548557       0.16589810       0.61565979       0.83627851
Al       0.10956789       8.18140106       3.95094562       0.04191905      -0.21965693       0.04832120
Al       0.00807835       9.99575520       6.00386093       0.00937589       0.10250682       0.06810006
Al       2.04830158       8.12776938       6.05513973       0.83644564       0.61045175      -1.54410511
Al       1.96733317      10.28000432       4.02136355      -0.23296900       0.93477269      -1.04948978
Al       0.05340013       8.10837581       8.22234535       0.67585447      -0.64203052       0.01751745
Al       0.01776516      10.22099895       9.99717991       0.32171929       0.36117102       0.80168080
Al       1.89585597       8.00278616      10.30727475      -0.97959056       0.16126318       0.55552632
Al       2.05739770      10.02221297       8.16744967       0.77661693      -0.35660418       0.77315577
Al       4.17286334       0.20049631      -0.17761505      -0.56138070       0.80633085       0.25175874
Al       3.97297475       1.98756654       2.18936085      -0.63344467       0.92204196      -0.43602202
Al       6.05679018      -0.02535072       2.03290775       0.14352152       1.02030217      -0.63658330
Al       6.24773510       1.82416532      -0.00866647       0.22308374      -0.59592383      -1.13976541
Al       4.00432623      -0.03841053       4.08849253       0.35709586       0.39852411      -0.51848828
Al       4.06099797       2.00451407       6.16567160       0.72518216      -0.42389686       0.15519888
Al       6.08638622       0.05661255       6.18224802      -0.14900793       0.16239342      -0.85506370
Al       5.90028695       1.90714685       4.05174450      -0.33921934      -0.88372244      -0.82143064
Al       3.90910830       0.04370790       8.00691121      -0.01439199      -0.12178479       0.67466533
Al       3.97526136       2.06764642      10.08207367      -0.72246348       0.35186084       1.28154532
Al       6.07281282      -0.04729878       9.85855179      -0.71309390       1.94239685      -0.53432410
Al       6.07186142       1.99017200       8.20987106      -0.32490015       0.08295742       0.98674962
Al       4.22641904       4.03490410       0.01089555       0.94035610       0.51208890       1.15397687
Al       3.97668756       5.95214652       2.10284334      -0.54611245      -0.06148044       0.71476723
Al       6.05561523       4.08028016       2.07969227      -0.13285543       0.31709752       0.53208160
Al       6.10386265       6.14319914       0.17789046      -0.59639027      -0.10665443       1.12668711
Al       4.12535009       3.96001149       4.06627162       0.73720086       0.49379418       0.24729213
Al       4.05571816       6.27083908       6.01543482      -0.11405665      -0.06354416      -0.45613945
Al       6.12489413       4.03707923       5.91827114       0.59750384      -0.40677876      -0.43093495
Al       6.02697333       6.25030258       3.98388404       0.95918517      -0.07583305      -0.59268408
Al       4.02724463       4.09114999       8.02298575      -1.61429475       0.21244631       0.53914542
Al       4.02757009       6.07785151      10.08946954      -0.46964991      -1.66574705       0.11882544
Al       6.16900016       4.10449811      10.06261781      -0.39865699      -0.20747310       0.71692913
Al       6.27488785       6.14930367       8.12979845       0.66746749      -0.56281995       1.30526950
Al       3.98331274       8.01670201       0.04882208      -0.57587677      -0.54404761       0.57447982
Al       4.07224992      10.25033823       1.79911267      -0.24226412      -0.46893093      -0.61056694
Al       5.89202674       8.10097298       1.96063331       0.44936478      -0.16530581       0.66667150
Al       6.18079459      10.17497816      -0.09463435       0.77038359      -0.69772645       0.02154662
Al       3.93495771       8.20791252       4.05652529       0.01430826      -1.44788064       0.30808823
Al       4.02208257      10.02243359       6.03967974       0.13041634      -1.72677245       0.51461768
Al       6.08662844       8.24047194       6.08638445      -0.73885140       0.37012166      -0.34042964
Al       6.03403247      10.17364577       4.21981380      -1.06953272       0.69991998      -0.29461239
Al       3.99326438       7.96594397       8.21962795       1.05708131      -0.82202995       0.36007172
Al       3.92301614      10.18165258      10.17680034       0.66962482      -1.19063323      -0.10223134
Al       6.10430165       8.15417209      10.15017223       0.69469207      -0.77251361      -0.62185809
Al       6.10902874      10.09663406       8.05570846      -0.62905407      -0.22803188      -0.09954291
Al       8.14135307      -0.14901723       0.11600679       0.07375096       0.25477105       0.20942926
Al       8.11193991       2.02987482       2.12201034       1.19897901       0.70440566      -1.54190566
Al      10.09357884      -0.01933475       2.08172169       0.15898758      -0.53520081      -0.19543600
Al      10.05527428       2.04122912      -0.00983583      -1.35472391       1.13531311       0.23482363
Al       7.98518587       0.02887793       4.21248505      -0.80129546       0.75405325      -1.32301498
Al       8.12465403       1.99553380       6.13726222      -0.46160584      -0.09151376       0.57996675
Al      10.11652669      -0.04108000       5.94776978      -0.33771322       1.19931297       1.03867259
Al      10.20827606       2.02185945       4.08463121       0.15455941      -0.15601477      -1.21575912
Al       8.16249826      -0.13041477       8.14108205       0.82233598       1.56801746       1.03471151
Al       8.09448990       1.81389421      10.02118070      -1.19008809      -1.04203279       0.18338073
Al       9.99956354       0.05080108       9.97351005      -0.62068623      -0.09195821       0.20325310
Al      10.09313787       2.01733847       8.09369415      -0.77377790       0.76071885       1.45720877
Al       8.04856261       4.17002442       0.05709788      -1.05791281       1.57846128       0.35897881
Al       8.14174535       6.16284293       2.05120502      -0.16696033      -1.30043043      -0.33847335
Al      10.10828573       3.92782553       1.98939326       0.47700793       0.27750519       0.07754067
Al      10.09281577       6.11519406      -0.00558748      -0.16415902      -0.22424383      -1.17544909
Al       8.17332281       3.99218200       3.90372417       0.92535932      -0.79247598       0.33989286
Al       8.11932848       6.08584533       6.13496225      -0.05630075      -1.63443573       0.55861369
Al      10.12669982       4.13466763       5.93586754      -0.80352147       0.58901273       0.17916927
Al      10.11566508       6.16782309       4.03498397       0.56412278       0.24787880      -0.05956858
Al       8.06597039       4.00359849       7.96614514       0.40556149      -0.15132533      -0.23157473
Al       8.22206097       6.04767503      10.20141021       1.23158373       1.69087006       0.82272726
Al      10.18081344       3.99391012      10.13295478      -0.23113670      -0.26780198       1.53258270
Al      10.07773807       6.13454974       8.08788497      -0.88667838       0.28261757       0.45002616
Al       8.22186473       8.31615688       0.14603093       0.93553427      -0.55319460      -1.29833511
Al       8.07730906      10.14237875       2.14240238      -1.52407330      -0.31174154       0.46061767
Al      10.23999444       8.13116753       2.08773655      -0.10965092      -1.19429963      -0.74328170
Al      10.09422400      10.20386103      -0.00848289      -1.87872889      -1.32160730      -0.14134150
Al       8.03224905       8.05364287       4.04735429       0.18364921      -1.83138852      -0.25117860
Al       7.97372530      10.11295824       6.07852988      -0.24319860       0.55666697      -0.27881243
Al      10.12417920       8.21125348       6.07131632       0.00669205       0.10957367       0.00361350
Al      10.21725552       9.98442169       4.05679924      -0.61886160      -0.28449476      -0.50971485
Al       8.26521231       7.96965769       8.05904720      -0.75602237      -1.00558180      -0.41377430
Al       8.13037251      10.12675015      10.11025878       0.45825223       0.33714490      -0.52657075
Al      10.16160553       8.15196520      10.16368142      -0.12208723       0.69832281      -0.06097885
Al      10.18220506      10.04446545       7.98101742       0.84276079      -0.26823080      -0.62571136
