Co Mo Fe Ni Cu 
 1.0000000000000000
    22.7250000000000014    0.0000000000000000    0.0000000000000000
     0.0000000000000000   22.7250000000000014    0.0000000000000000
     0.0000000000000000    0.0000000000000000   22.7250000000000014
 Co  Mo  Fe  Ni  Cu 
 131 475  86  86  86
Cartesian
  0.0000000000000000  1.8937500000000000  1.8937500000000000
  1.8937500000000000  0.0000000000000000 13.2562500000000014
  1.8937500000000000  1.8937500000000000 15.1500000000000004
  0.0000000000000000  3.7875000000000001  7.5750000000000002
  1.8937500000000000  5.6812500000000004  7.5750000000000002
  1.8937500000000000  5.6812500000000004 15.1500000000000004
  0.0000000000000000  9.4687500000000000  9.4687500000000000
  1.8937500000000000  9.4687500000000000 11.3624999999999989
  0.0000000000000000  9.4687500000000000 17.0437499999999993
  1.8937500000000000 13.2562500000000014  0.0000000000000000
  0.0000000000000000 11.3624999999999989  3.7875000000000001
  1.8937500000000000 13.2562500000000014 11.3624999999999989
  1.8937500000000000 13.2562500000000014 18.9375000000000000
  1.8937500000000000 17.0437499999999993  0.0000000000000000
  0.0000000000000000 17.0437499999999993 20.8312500000000007
  1.8937500000000000 20.8312500000000007  3.7875000000000001
  1.8937500000000000 20.8312500000000007  7.5750000000000002
  1.8937500000000000 18.9375000000000000 13.2562500000000014
  1.8937500000000000 18.9375000000000000 17.0437499999999993
  0.0000000000000000 18.9375000000000000 18.9375000000000000
  3.7875000000000001  1.8937500000000000  1.8937500000000000
  3.7875000000000001  1.8937500000000000  5.6812500000000004
  3.7875000000000001  1.8937500000000000 17.0437499999999993
  5.6812500000000004  5.6812500000000004  0.0000000000000000
  3.7875000000000001  7.5750000000000002  0.0000000000000000
  3.7875000000000001  7.5750000000000002 11.3624999999999989
  3.7875000000000001  9.4687500000000000 13.2562500000000014
  3.7875000000000001  7.5750000000000002 15.1500000000000004
  5.6812500000000004  9.4687500000000000 15.1500000000000004
  5.6812500000000004  7.5750000000000002 20.8312500000000007
  3.7875000000000001 13.2562500000000014  9.4687500000000000
  5.6812500000000004 11.3624999999999989 20.8312500000000007
  3.7875000000000001 17.0437499999999993  1.8937500000000000
  5.6812500000000004 15.1500000000000004  5.6812500000000004
  3.7875000000000001 15.1500000000000004  7.5750000000000002
  5.6812500000000004 15.1500000000000004 17.0437499999999993
  3.7875000000000001 20.8312500000000007  1.8937500000000000
  3.7875000000000001 18.9375000000000000 18.9375000000000000
  9.4687500000000000  1.8937500000000000  0.0000000000000000
  7.5750000000000002  0.0000000000000000  7.5750000000000002
  9.4687500000000000  0.0000000000000000 17.0437499999999993
  7.5750000000000002  5.6812500000000004  1.8937500000000000
  9.4687500000000000  3.7875000000000001  9.4687500000000000
  7.5750000000000002  3.7875000000000001 11.3624999999999989
  7.5750000000000002  3.7875000000000001 15.1500000000000004
  9.4687500000000000  5.6812500000000004 15.1500000000000004
  7.5750000000000002  9.4687500000000000  5.6812500000000004
  9.4687500000000000  7.5750000000000002 13.2562500000000014
  7.5750000000000002 13.2562500000000014  1.8937500000000000
  7.5750000000000002 11.3624999999999989  3.7875000000000001
  7.5750000000000002 11.3624999999999989  7.5750000000000002
  9.4687500000000000 11.3624999999999989  9.4687500000000000
  9.4687500000000000 13.2562500000000014  7.5750000000000002
  7.5750000000000002 11.3624999999999989 15.1500000000000004
  7.5750000000000002 15.1500000000000004  7.5750000000000002
  9.4687500000000000 15.1500000000000004  9.4687500000000000
  7.5750000000000002 17.0437499999999993 13.2562500000000014
  9.4687500000000000 17.0437499999999993 15.1500000000000004
  9.4687500000000000 18.9375000000000000  5.6812500000000004
  7.5750000000000002 18.9375000000000000 15.1500000000000004
 13.2562500000000014  1.8937500000000000  0.0000000000000000
 13.2562500000000014  0.0000000000000000  5.6812500000000004
 13.2562500000000014  5.6812500000000004 15.1500000000000004
 13.2562500000000014  5.6812500000000004 18.9375000000000000
 11.3624999999999989  7.5750000000000002  0.0000000000000000
 13.2562500000000014  9.4687500000000000  3.7875000000000001
 11.3624999999999989  7.5750000000000002 15.1500000000000004
 11.3624999999999989  9.4687500000000000 17.0437499999999993
 11.3624999999999989  9.4687500000000000 20.8312500000000007
 13.2562500000000014 13.2562500000000014  0.0000000000000000
 13.2562500000000014 11.3624999999999989  5.6812500000000004
 13.2562500000000014 11.3624999999999989  9.4687500000000000
 13.2562500000000014 13.2562500000000014  7.5750000000000002
 11.3624999999999989 17.0437499999999993  9.4687500000000000
 11.3624999999999989 15.1500000000000004 11.3624999999999989
 11.3624999999999989 17.0437499999999993 13.2562500000000014
 13.2562500000000014 15.1500000000000004 13.2562500000000014
 13.2562500000000014 20.8312500000000007  0.0000000000000000
 11.3624999999999989 18.9375000000000000  3.7875000000000001
 13.2562500000000014 20.8312500000000007  7.5750000000000002
 13.2562500000000014 18.9375000000000000 13.2562500000000014
 11.3624999999999989 20.8312500000000007 17.0437499999999993
 13.2562500000000014 18.9375000000000000 17.0437499999999993
 11.3624999999999989 20.8312500000000007 20.8312500000000007
 13.2562500000000014 18.9375000000000000 20.8312500000000007
 13.2562500000000014 20.8312500000000007 18.9375000000000000
 15.1500000000000004  1.8937500000000000  5.6812500000000004
 15.1500000000000004  1.8937500000000000 20.8312500000000007
 17.0437499999999993  1.8937500000000000 18.9375000000000000
 15.1500000000000004  5.6812500000000004  5.6812500000000004
 17.0437499999999993  3.7875000000000001  9.4687500000000000
 17.0437499999999993  5.6812500000000004 18.9375000000000000
 15.1500000000000004  7.5750000000000002  7.5750000000000002
 15.1500000000000004  7.5750000000000002 18.9375000000000000
 17.0437499999999993  7.5750000000000002 20.8312500000000007
 17.0437499999999993 11.3624999999999989  1.8937500000000000
 15.1500000000000004 11.3624999999999989  3.7875000000000001
 17.0437499999999993 13.2562500000000014  3.7875000000000001
 17.0437499999999993 13.2562500000000014  7.5750000000000002
 17.0437499999999993 13.2562500000000014 18.9375000000000000
 15.1500000000000004 17.0437499999999993  5.6812500000000004
 17.0437499999999993 17.0437499999999993  7.5750000000000002
 17.0437499999999993 15.1500000000000004 13.2562500000000014
 15.1500000000000004 18.9375000000000000  0.0000000000000000
 15.1500000000000004 20.8312500000000007  1.8937500000000000
 17.0437499999999993 18.9375000000000000  1.8937500000000000
 15.1500000000000004 20.8312500000000007  9.4687500000000000
 17.0437499999999993 18.9375000000000000 13.2562500000000014
 17.0437499999999993 20.8312500000000007 18.9375000000000000
 18.9375000000000000  0.0000000000000000  0.0000000000000000
 18.9375000000000000  0.0000000000000000  3.7875000000000001
 20.8312500000000007  0.0000000000000000 20.8312500000000007
 20.8312500000000007  1.8937500000000000 18.9375000000000000
 20.8312500000000007  5.6812500000000004  0.0000000000000000
 18.9375000000000000  3.7875000000000001  7.5750000000000002
 20.8312500000000007  5.6812500000000004  7.5750000000000002
 20.8312500000000007  5.6812500000000004 11.3624999999999989
 20.8312500000000007  5.6812500000000004 18.9375000000000000
 18.9375000000000000  7.5750000000000002  0.0000000000000000
 18.9375000000000000 13.2562500000000014  1.8937500000000000
 20.8312500000000007 11.3624999999999989  9.4687500000000000
 18.9375000000000000 15.1500000000000004  3.7875000000000001
 18.9375000000000000 17.0437499999999993  9.4687500000000000
 18.9375000000000000 15.1500000000000004 15.1500000000000004
 20.8312500000000007 20.8312500000000007  0.0000000000000000
 18.9375000000000000 20.8312500000000007  9.4687500000000000
 20.8312500000000007 18.9375000000000000  9.4687500000000000
 20.8312500000000007 20.8312500000000007  7.5750000000000002
 18.9375000000000000 18.9375000000000000 15.1500000000000004
 18.9375000000000000 20.8312500000000007 20.8312500000000007
 20.8312500000000007 20.8312500000000007 18.9375000000000000
  1.8937500000000000 17.0437499999999993  7.5750000000000002
 13.2562500000000014 11.3624999999999989 20.8312500000000007
  7.5750000000000002  9.4687500000000000 17.0437499999999993
 15.1500000000000004  3.7875000000000001  0.0000000000000000
  9.4687500000000000 11.3624999999999989 13.2562500000000014
  1.8937500000000000  3.7875000000000001 20.8312500000000007
  7.5750000000000002 20.8312500000000007 17.0437499999999993
  1.8937500000000000 11.3624999999999989  9.4687500000000000
  7.5750000000000002  5.6812500000000004 13.2562500000000014
 20.8312500000000007 18.9375000000000000 17.0437499999999993
 18.9375000000000000 17.0437499999999993  5.6812500000000004
  3.7875000000000001  0.0000000000000000  0.0000000000000000
  5.6812500000000004  5.6812500000000004 11.3624999999999989
  9.4687500000000000 11.3624999999999989  1.8937500000000000
  5.6812500000000004 18.9375000000000000  5.6812500000000004
  9.4687500000000000 15.1500000000000004 17.0437499999999993
 15.1500000000000004 17.0437499999999993  1.8937500000000000
  5.6812500000000004 13.2562500000000014 15.1500000000000004
  5.6812500000000004  7.5750000000000002 13.2562500000000014
  5.6812500000000004 15.1500000000000004  1.8937500000000000
 15.1500000000000004 13.2562500000000014  9.4687500000000000
  5.6812500000000004 15.1500000000000004 20.8312500000000007
 15.1500000000000004 15.1500000000000004 11.3624999999999989
  5.6812500000000004 20.8312500000000007 15.1500000000000004
 17.0437499999999993 15.1500000000000004  1.8937500000000000
  1.8937500000000000 20.8312500000000007  0.0000000000000000
  3.7875000000000001 17.0437499999999993  5.6812500000000004
  0.0000000000000000  5.6812500000000004 13.2562500000000014
  9.4687500000000000 13.2562500000000014  0.0000000000000000
  9.4687500000000000 15.1500000000000004 20.8312500000000007
 20.8312500000000007 20.8312500000000007 11.3624999999999989
 11.3624999999999989 13.2562500000000014  5.6812500000000004
 17.0437499999999993  0.0000000000000000  1.8937500000000000
  0.0000000000000000 17.0437499999999993  9.4687500000000000
  3.7875000000000001  5.6812500000000004  1.8937500000000000
  5.6812500000000004  9.4687500000000000  7.5750000000000002
 15.1500000000000004  7.5750000000000002 11.3624999999999989
 17.0437499999999993 15.1500000000000004 17.0437499999999993
  0.0000000000000000 17.0437499999999993 13.2562500000000014
  1.8937500000000000  1.8937500000000000  7.5750000000000002
 17.0437499999999993  9.4687500000000000  7.5750000000000002
  0.0000000000000000  0.0000000000000000 15.1500000000000004
  7.5750000000000002  3.7875000000000001  7.5750000000000002
  7.5750000000000002  9.4687500000000000  9.4687500000000000
 17.0437499999999993  5.6812500000000004  7.5750000000000002
  5.6812500000000004  0.0000000000000000  5.6812500000000004
  9.4687500000000000  5.6812500000000004 18.9375000000000000
  5.6812500000000004  1.8937500000000000  3.7875000000000001
  0.0000000000000000 20.8312500000000007  5.6812500000000004
  0.0000000000000000  5.6812500000000004  1.8937500000000000
 20.8312500000000007  3.7875000000000001  5.6812500000000004
  7.5750000000000002 18.9375000000000000  7.5750000000000002
 17.0437499999999993  3.7875000000000001 20.8312500000000007
  7.5750000000000002  0.0000000000000000  0.0000000000000000
  7.5750000000000002  1.8937500000000000  1.8937500000000000
  1.8937500000000000  0.0000000000000000  1.8937500000000000
  9.4687500000000000  7.5750000000000002  9.4687500000000000
 18.9375000000000000 11.3624999999999989 15.1500000000000004
 20.8312500000000007  0.0000000000000000  5.6812500000000004
 20.8312500000000007  0.0000000000000000  1.8937500000000000
 15.1500000000000004 15.1500000000000004 15.1500000000000004
 15.1500000000000004  0.0000000000000000 18.9375000000000000
  7.5750000000000002  3.7875000000000001  3.7875000000000001
 18.9375000000000000  5.6812500000000004 13.2562500000000014
 13.2562500000000014  0.0000000000000000  1.8937500000000000
 15.1500000000000004 17.0437499999999993 13.2562500000000014
 13.2562500000000014  3.7875000000000001  5.6812500000000004
  3.7875000000000001 11.3624999999999989 11.3624999999999989
  1.8937500000000000 17.0437499999999993 11.3624999999999989
 15.1500000000000004  9.4687500000000000  1.8937500000000000
  7.5750000000000002 13.2562500000000014 20.8312500000000007
  9.4687500000000000  1.8937500000000000  7.5750000000000002
 20.8312500000000007 20.8312500000000007  3.7875000000000001
  0.0000000000000000  1.8937500000000000  5.6812500000000004
 18.9375000000000000 11.3624999999999989  0.0000000000000000
  1.8937500000000000 15.1500000000000004  1.8937500000000000
  7.5750000000000002 15.1500000000000004  0.0000000000000000
 17.0437499999999993  0.0000000000000000  9.4687500000000000
 18.9375000000000000  5.6812500000000004  1.8937500000000000
 15.1500000000000004 11.3624999999999989 18.9375000000000000
 11.3624999999999989  5.6812500000000004  1.8937500000000000
 18.9375000000000000 18.9375000000000000  0.0000000000000000
  0.0000000000000000 15.1500000000000004  7.5750000000000002
  1.8937500000000000  0.0000000000000000 17.0437499999999993
 11.3624999999999989  1.8937500000000000 17.0437499999999993
 20.8312500000000007  9.4687500000000000  3.7875000000000001
  5.6812500000000004 13.2562500000000014 18.9375000000000000
 13.2562500000000014  3.7875000000000001  1.8937500000000000
 18.9375000000000000  5.6812500000000004 17.0437499999999993
  0.0000000000000000  9.4687500000000000 20.8312500000000007
 20.8312500000000007  9.4687500000000000 11.3624999999999989
 20.8312500000000007  1.8937500000000000  7.5750000000000002
  3.7875000000000001 15.1500000000000004  0.0000000000000000
 20.8312500000000007  9.4687500000000000  7.5750000000000002
  3.7875000000000001  9.4687500000000000  1.8937500000000000
  0.0000000000000000  3.7875000000000001  0.0000000000000000
  1.8937500000000000  5.6812500000000004  0.0000000000000000
 18.9375000000000000 15.1500000000000004  7.5750000000000002
  0.0000000000000000 11.3624999999999989 11.3624999999999989
  1.8937500000000000  7.5750000000000002  9.4687500000000000
 13.2562500000000014 18.9375000000000000  5.6812500000000004
  3.7875000000000001  3.7875000000000001  7.5750000000000002
 15.1500000000000004 11.3624999999999989 11.3624999999999989
 13.2562500000000014 17.0437499999999993 18.9375000000000000
  1.8937500000000000  0.0000000000000000  5.6812500000000004
  7.5750000000000002 11.3624999999999989 11.3624999999999989
 17.0437499999999993 17.0437499999999993  3.7875000000000001
  9.4687500000000000  7.5750000000000002  5.6812500000000004
 17.0437499999999993 15.1500000000000004  9.4687500000000000
  0.0000000000000000  5.6812500000000004 17.0437499999999993
  9.4687500000000000 15.1500000000000004 13.2562500000000014
 15.1500000000000004  9.4687500000000000  5.6812500000000004
  5.6812500000000004 18.9375000000000000 13.2562500000000014
  0.0000000000000000 11.3624999999999989 18.9375000000000000
  7.5750000000000002 15.1500000000000004 15.1500000000000004
  0.0000000000000000 20.8312500000000007 17.0437499999999993
 17.0437499999999993  9.4687500000000000 11.3624999999999989
  3.7875000000000001 15.1500000000000004 18.9375000000000000
  5.6812500000000004  3.7875000000000001  5.6812500000000004
 17.0437499999999993 20.8312500000000007  3.7875000000000001
 20.8312500000000007 11.3624999999999989  1.8937500000000000
  0.0000000000000000 13.2562500000000014  5.6812500000000004
  9.4687500000000000  1.8937500000000000 11.3624999999999989
  1.8937500000000000  5.6812500000000004 11.3624999999999989
  0.0000000000000000  5.6812500000000004  9.4687500000000000
 17.0437499999999993  3.7875000000000001  1.8937500000000000
  9.4687500000000000  7.5750000000000002 20.8312500000000007
 15.1500000000000004 13.2562500000000014 20.8312500000000007
 13.2562500000000014  5.6812500000000004 11.3624999999999989
 20.8312500000000007  0.0000000000000000 17.0437499999999993
  0.0000000000000000 13.2562500000000014  1.8937500000000000
  3.7875000000000001 11.3624999999999989  7.5750000000000002
  1.8937500000000000  9.4687500000000000  0.0000000000000000
 11.3624999999999989 17.0437499999999993  1.8937500000000000
  9.4687500000000000 15.1500000000000004  5.6812500000000004
  0.0000000000000000  0.0000000000000000 11.3624999999999989
 11.3624999999999989 13.2562500000000014 13.2562500000000014
 15.1500000000000004 15.1500000000000004  3.7875000000000001
 15.1500000000000004  0.0000000000000000 15.1500000000000004
  9.4687500000000000 18.9375000000000000  9.4687500000000000
 15.1500000000000004 11.3624999999999989  0.0000000000000000
  0.0000000000000000 13.2562500000000014  9.4687500000000000
  0.0000000000000000  7.5750000000000002 15.1500000000000004
 20.8312500000000007  1.8937500000000000 15.1500000000000004
 18.9375000000000000  0.0000000000000000  7.5750000000000002
  7.5750000000000002 20.8312500000000007  5.6812500000000004
  9.4687500000000000 20.8312500000000007  3.7875000000000001
  9.4687500000000000  9.4687500000000000 18.9375000000000000
 15.1500000000000004  9.4687500000000000  9.4687500000000000
 17.0437499999999993 11.3624999999999989  9.4687500000000000
  7.5750000000000002  1.8937500000000000 20.8312500000000007
 20.8312500000000007 17.0437499999999993 18.9375000000000000
  3.7875000000000001 20.8312500000000007 13.2562500000000014
 17.0437499999999993  7.5750000000000002  9.4687500000000000
  5.6812500000000004  1.8937500000000000  7.5750000000000002
  0.0000000000000000  0.0000000000000000  3.7875000000000001
 11.3624999999999989 15.1500000000000004 18.9375000000000000
  9.4687500000000000 11.3624999999999989  5.6812500000000004
 13.2562500000000014  3.7875000000000001 20.8312500000000007
  3.7875000000000001  3.7875000000000001 11.3624999999999989
 13.2562500000000014 13.2562500000000014 11.3624999999999989
 13.2562500000000014 15.1500000000000004 20.8312500000000007
  9.4687500000000000 13.2562500000000014 18.9375000000000000
 20.8312500000000007 18.9375000000000000 13.2562500000000014
 13.2562500000000014 18.9375000000000000  1.8937500000000000
  1.8937500000000000 13.2562500000000014  3.7875000000000001
 17.0437499999999993  0.0000000000000000  5.6812500000000004
  5.6812500000000004 17.0437499999999993 11.3624999999999989
  7.5750000000000002 15.1500000000000004 18.9375000000000000
  3.7875000000000001  9.4687500000000000  9.4687500000000000
 11.3624999999999989 17.0437499999999993 20.8312500000000007
  5.6812500000000004 13.2562500000000014  0.0000000000000000
 15.1500000000000004 11.3624999999999989 15.1500000000000004
 20.8312500000000007  9.4687500000000000 15.1500000000000004
 17.0437499999999993  5.6812500000000004 15.1500000000000004
 18.9375000000000000  3.7875000000000001 18.9375000000000000
  5.6812500000000004 20.8312500000000007 11.3624999999999989
  7.5750000000000002  5.6812500000000004 20.8312500000000007
 20.8312500000000007 18.9375000000000000 20.8312500000000007
 17.0437499999999993 20.8312500000000007 15.1500000000000004
 13.2562500000000014 20.8312500000000007 11.3624999999999989
 11.3624999999999989  1.8937500000000000  5.6812500000000004
 11.3624999999999989 20.8312500000000007 13.2562500000000014
 13.2562500000000014  7.5750000000000002  9.4687500000000000
  3.7875000000000001 13.2562500000000014 20.8312500000000007
  7.5750000000000002  7.5750000000000002 11.3624999999999989
 17.0437499999999993  3.7875000000000001 13.2562500000000014
 13.2562500000000014 20.8312500000000007 15.1500000000000004
  0.0000000000000000 15.1500000000000004 11.3624999999999989
 20.8312500000000007 13.2562500000000014 11.3624999999999989
  7.5750000000000002  5.6812500000000004 17.0437499999999993
 20.8312500000000007 20.8312500000000007 15.1500000000000004
  1.8937500000000000 20.8312500000000007 15.1500000000000004
 13.2562500000000014  7.5750000000000002 13.2562500000000014
  9.4687500000000000 18.9375000000000000 17.0437499999999993
  0.0000000000000000 20.8312500000000007 20.8312500000000007
 20.8312500000000007  7.5750000000000002  9.4687500000000000
  1.8937500000000000  3.7875000000000001  1.8937500000000000
 13.2562500000000014  7.5750000000000002 20.8312500000000007
 11.3624999999999989 20.8312500000000007  5.6812500000000004
 18.9375000000000000  9.4687500000000000  5.6812500000000004
  7.5750000000000002  9.4687500000000000 20.8312500000000007
 20.8312500000000007 15.1500000000000004 17.0437499999999993
  3.7875000000000001  7.5750000000000002 18.9375000000000000
 15.1500000000000004  9.4687500000000000 13.2562500000000014
  5.6812500000000004 17.0437499999999993  7.5750000000000002
 15.1500000000000004  9.4687500000000000 20.8312500000000007
  5.6812500000000004  0.0000000000000000  9.4687500000000000
  3.7875000000000001  1.8937500000000000 20.8312500000000007
  0.0000000000000000  1.8937500000000000 13.2562500000000014
 13.2562500000000014  1.8937500000000000 15.1500000000000004
  0.0000000000000000 13.2562500000000014 13.2562500000000014
 15.1500000000000004  5.6812500000000004 20.8312500000000007
 13.2562500000000014 15.1500000000000004 17.0437499999999993
  3.7875000000000001 18.9375000000000000  3.7875000000000001
  0.0000000000000000  3.7875000000000001  3.7875000000000001
  1.8937500000000000 13.2562500000000014 15.1500000000000004
 15.1500000000000004  0.0000000000000000  7.5750000000000002
  1.8937500000000000 18.9375000000000000  9.4687500000000000
 13.2562500000000014  3.7875000000000001 17.0437499999999993
  9.4687500000000000  5.6812500000000004  7.5750000000000002
  1.8937500000000000 18.9375000000000000  5.6812500000000004
  0.0000000000000000  3.7875000000000001 15.1500000000000004
  1.8937500000000000  1.8937500000000000 11.3624999999999989
 11.3624999999999989  7.5750000000000002  7.5750000000000002
  1.8937500000000000  0.0000000000000000  9.4687500000000000
 15.1500000000000004  5.6812500000000004  9.4687500000000000
  1.8937500000000000  7.5750000000000002  1.8937500000000000
 13.2562500000000014 11.3624999999999989 17.0437499999999993
  5.6812500000000004 18.9375000000000000 17.0437499999999993
  9.4687500000000000 17.0437499999999993  3.7875000000000001
 18.9375000000000000 15.1500000000000004 18.9375000000000000
 11.3624999999999989 11.3624999999999989 18.9375000000000000
 15.1500000000000004 13.2562500000000014  1.8937500000000000
  7.5750000000000002 17.0437499999999993  9.4687500000000000
  3.7875000000000001 20.8312500000000007  5.6812500000000004
 17.0437499999999993 11.3624999999999989 13.2562500000000014
 17.0437499999999993  1.8937500000000000 11.3624999999999989
 17.0437499999999993  7.5750000000000002 17.0437499999999993
  1.8937500000000000 11.3624999999999989 13.2562500000000014
 15.1500000000000004 18.9375000000000000 15.1500000000000004
 15.1500000000000004  0.0000000000000000  3.7875000000000001
 17.0437499999999993  5.6812500000000004  0.0000000000000000
  1.8937500000000000 15.1500000000000004 13.2562500000000014
  0.0000000000000000 18.9375000000000000  3.7875000000000001
  3.7875000000000001  3.7875000000000001  3.7875000000000001
  9.4687500000000000 15.1500000000000004  1.8937500000000000
  9.4687500000000000  9.4687500000000000 11.3624999999999989
 11.3624999999999989  3.7875000000000001 18.9375000000000000
  5.6812500000000004  7.5750000000000002  9.4687500000000000
 18.9375000000000000 11.3624999999999989 18.9375000000000000
 20.8312500000000007  5.6812500000000004 15.1500000000000004
 20.8312500000000007 11.3624999999999989 17.0437499999999993
  7.5750000000000002  1.8937500000000000 17.0437499999999993
 11.3624999999999989 18.9375000000000000  0.0000000000000000
  9.4687500000000000  7.5750000000000002  1.8937500000000000
 18.9375000000000000  3.7875000000000001 15.1500000000000004
 11.3624999999999989  3.7875000000000001  0.0000000000000000
 20.8312500000000007  9.4687500000000000  0.0000000000000000
 18.9375000000000000 15.1500000000000004 11.3624999999999989
  3.7875000000000001  9.4687500000000000 17.0437499999999993
  3.7875000000000001 20.8312500000000007  9.4687500000000000
  3.7875000000000001  1.8937500000000000 13.2562500000000014
 17.0437499999999993  7.5750000000000002  5.6812500000000004
 17.0437499999999993  9.4687500000000000  0.0000000000000000
  0.0000000000000000  7.5750000000000002  3.7875000000000001
 11.3624999999999989  3.7875000000000001 15.1500000000000004
 13.2562500000000014  9.4687500000000000 11.3624999999999989
 15.1500000000000004  1.8937500000000000 13.2562500000000014
 11.3624999999999989  5.6812500000000004 20.8312500000000007
  1.8937500000000000 18.9375000000000000  1.8937500000000000
  3.7875000000000001  0.0000000000000000 18.9375000000000000
  9.4687500000000000 17.0437499999999993  7.5750000000000002
 11.3624999999999989 18.9375000000000000 11.3624999999999989
 18.9375000000000000  0.0000000000000000 11.3624999999999989
 11.3624999999999989  9.4687500000000000 13.2562500000000014
 11.3624999999999989  5.6812500000000004 13.2562500000000014
  3.7875000000000001  0.0000000000000000 11.3624999999999989
  0.0000000000000000  3.7875000000000001 18.9375000000000000
 13.2562500000000014  1.8937500000000000  3.7875000000000001
 20.8312500000000007 17.0437499999999993  3.7875000000000001
  9.4687500000000000  9.4687500000000000 15.1500000000000004
  1.8937500000000000  1.8937500000000000 18.9375000000000000
  1.8937500000000000 15.1500000000000004  9.4687500000000000
  3.7875000000000001 11.3624999999999989  3.7875000000000001
  7.5750000000000002 17.0437499999999993  1.8937500000000000
  3.7875000000000001 18.9375000000000000  0.0000000000000000
  5.6812500000000004  3.7875000000000001 17.0437499999999993
  1.8937500000000000 11.3624999999999989 17.0437499999999993
  1.8937500000000000  3.7875000000000001 17.0437499999999993
 17.0437499999999993  1.8937500000000000 15.1500000000000004
  9.4687500000000000  3.7875000000000001  5.6812500000000004
 15.1500000000000004  1.8937500000000000 17.0437499999999993
  5.6812500000000004 15.1500000000000004  9.4687500000000000
  7.5750000000000002 13.2562500000000014  5.6812500000000004
  9.4687500000000000  3.7875000000000001 13.2562500000000014
 11.3624999999999989  5.6812500000000004 17.0437499999999993
 11.3624999999999989 18.9375000000000000 18.9375000000000000
 13.2562500000000014  1.8937500000000000  7.5750000000000002
 17.0437499999999993 18.9375000000000000 20.8312500000000007
  7.5750000000000002  3.7875000000000001 18.9375000000000000
  3.7875000000000001 17.0437499999999993 13.2562500000000014
 15.1500000000000004  3.7875000000000001  7.5750000000000002
  7.5750000000000002 15.1500000000000004 11.3624999999999989
 18.9375000000000000  3.7875000000000001 11.3624999999999989
  9.4687500000000000  0.0000000000000000  1.8937500000000000
 15.1500000000000004 11.3624999999999989  7.5750000000000002
  3.7875000000000001  9.4687500000000000 20.8312500000000007
 13.2562500000000014 15.1500000000000004  1.8937500000000000
  9.4687500000000000 18.9375000000000000 20.8312500000000007
  1.8937500000000000  7.5750000000000002 20.8312500000000007
 20.8312500000000007 15.1500000000000004 20.8312500000000007
  3.7875000000000001 13.2562500000000014 13.2562500000000014
 15.1500000000000004 20.8312500000000007 20.8312500000000007
  5.6812500000000004  0.0000000000000000  1.8937500000000000
  0.0000000000000000  0.0000000000000000  7.5750000000000002
 18.9375000000000000  1.8937500000000000 13.2562500000000014
  9.4687500000000000  0.0000000000000000 20.8312500000000007
 11.3624999999999989  5.6812500000000004  5.6812500000000004
  7.5750000000000002  7.5750000000000002  0.0000000000000000
 20.8312500000000007 11.3624999999999989  5.6812500000000004
 17.0437499999999993 15.1500000000000004  5.6812500000000004
 18.9375000000000000 13.2562500000000014 17.0437499999999993
 18.9375000000000000  7.5750000000000002 15.1500000000000004
  1.8937500000000000 18.9375000000000000 20.8312500000000007
 18.9375000000000000  7.5750000000000002  7.5750000000000002
 17.0437499999999993  7.5750000000000002 13.2562500000000014
 18.9375000000000000  9.4687500000000000 20.8312500000000007
 13.2562500000000014  1.8937500000000000 11.3624999999999989
  9.4687500000000000  9.4687500000000000  3.7875000000000001
  7.5750000000000002  5.6812500000000004  5.6812500000000004
  9.4687500000000000  0.0000000000000000  5.6812500000000004
 11.3624999999999989  1.8937500000000000 13.2562500000000014
  5.6812500000000004 18.9375000000000000 20.8312500000000007
  5.6812500000000004 20.8312500000000007  0.0000000000000000
 15.1500000000000004 20.8312500000000007 13.2562500000000014
  1.8937500000000000  0.0000000000000000 20.8312500000000007
  3.7875000000000001 15.1500000000000004  3.7875000000000001
  1.8937500000000000 15.1500000000000004 17.0437499999999993
  1.8937500000000000  9.4687500000000000 18.9375000000000000
  0.0000000000000000 18.9375000000000000  0.0000000000000000
  5.6812500000000004 20.8312500000000007  7.5750000000000002
  0.0000000000000000  0.0000000000000000 18.9375000000000000
  1.8937500000000000  3.7875000000000001  5.6812500000000004
  5.6812500000000004  1.8937500000000000 15.1500000000000004
  5.6812500000000004 13.2562500000000014 11.3624999999999989
  9.4687500000000000 13.2562500000000014 15.1500000000000004
  1.8937500000000000  7.5750000000000002 13.2562500000000014
  9.4687500000000000 18.9375000000000000 13.2562500000000014
  3.7875000000000001  0.0000000000000000 15.1500000000000004
  3.7875000000000001 17.0437499999999993 20.8312500000000007
 18.9375000000000000 17.0437499999999993 20.8312500000000007
  3.7875000000000001 15.1500000000000004 11.3624999999999989
  7.5750000000000002 20.8312500000000007 20.8312500000000007
 15.1500000000000004 13.2562500000000014  5.6812500000000004
 17.0437499999999993  0.0000000000000000 20.8312500000000007