Mo Fe Cu 
 1.0000000000000000
    22.8000000000000007    0.0000000000000000    0.0000000000000000
     0.0000000000000000   22.8000000000000007    0.0000000000000000
     0.0000000000000000    0.0000000000000000   22.8000000000000007
 Mo  Fe  Cu 
 432 216 216
Cartesian
  0.0000000000000000  0.0000000000000000  0.0000000000000000
  0.0000000000000000  1.8999999999999999  1.8999999999999999
  1.8999999999999999  1.8999999999999999  0.0000000000000000
  0.0000000000000000  1.8999999999999999  5.7000000000000002
  1.8999999999999999  0.0000000000000000  5.7000000000000002
  1.8999999999999999  0.0000000000000000  9.5000000000000000
  0.0000000000000000  0.0000000000000000 11.3999999999999986
  0.0000000000000000  0.0000000000000000 15.1999999999999993
  0.0000000000000000  1.8999999999999999 17.0999999999999979
  1.8999999999999999  0.0000000000000000 17.0999999999999979
  1.8999999999999999  1.8999999999999999 15.1999999999999993
  0.0000000000000000  5.7000000000000002  1.8999999999999999
  1.8999999999999999  3.7999999999999998  5.7000000000000002
  0.0000000000000000  5.7000000000000002  9.5000000000000000
  1.8999999999999999  3.7999999999999998  9.5000000000000000
  0.0000000000000000  3.7999999999999998 11.3999999999999986
  1.8999999999999999  5.7000000000000002 11.3999999999999986
  0.0000000000000000  3.7999999999999998 15.1999999999999993
  1.8999999999999999  3.7999999999999998 17.0999999999999979
  1.8999999999999999  5.7000000000000002 15.1999999999999993
  0.0000000000000000  3.7999999999999998 19.0000000000000000
  1.8999999999999999  5.7000000000000002 19.0000000000000000
  1.8999999999999999  9.5000000000000000  0.0000000000000000
  0.0000000000000000  7.5999999999999996  3.7999999999999998
  0.0000000000000000  9.5000000000000000  5.7000000000000002
  0.0000000000000000  9.5000000000000000  9.5000000000000000
  0.0000000000000000  7.5999999999999996 15.1999999999999993
  1.8999999999999999  9.5000000000000000 15.1999999999999993
  0.0000000000000000  9.5000000000000000 20.8999999999999986
  1.8999999999999999  7.5999999999999996 20.8999999999999986
  1.8999999999999999  9.5000000000000000 19.0000000000000000
  0.0000000000000000 13.3000000000000007  1.8999999999999999
  1.8999999999999999 13.3000000000000007  0.0000000000000000
  1.8999999999999999 13.3000000000000007  3.7999999999999998
  1.8999999999999999 11.3999999999999986  9.5000000000000000
  1.8999999999999999 13.3000000000000007  7.5999999999999996
  0.0000000000000000 13.3000000000000007 13.3000000000000007
  0.0000000000000000 11.3999999999999986 15.1999999999999993
  0.0000000000000000 13.3000000000000007 17.0999999999999979
  1.8999999999999999 13.3000000000000007 15.1999999999999993
  0.0000000000000000 13.3000000000000007 20.8999999999999986
  0.0000000000000000 15.1999999999999993  0.0000000000000000
  0.0000000000000000 17.0999999999999979  1.8999999999999999
  1.8999999999999999 17.0999999999999979  0.0000000000000000
  0.0000000000000000 15.1999999999999993  7.5999999999999996
  1.8999999999999999 15.1999999999999993  9.5000000000000000
  0.0000000000000000 17.0999999999999979 13.3000000000000007
  1.8999999999999999 17.0999999999999979 11.3999999999999986
  0.0000000000000000 15.1999999999999993 15.1999999999999993
  1.8999999999999999 15.1999999999999993 17.0999999999999979
  1.8999999999999999 17.0999999999999979 15.1999999999999993
  1.8999999999999999 15.1999999999999993 20.8999999999999986
  1.8999999999999999 17.0999999999999979 19.0000000000000000
  0.0000000000000000 20.8999999999999986  1.8999999999999999
  1.8999999999999999 19.0000000000000000  1.8999999999999999
  1.8999999999999999 20.8999999999999986  0.0000000000000000
  0.0000000000000000 19.0000000000000000  3.7999999999999998
  0.0000000000000000 20.8999999999999986  5.7000000000000002
  1.8999999999999999 19.0000000000000000  5.7000000000000002
  1.8999999999999999 20.8999999999999986  3.7999999999999998
  1.8999999999999999 19.0000000000000000  9.5000000000000000
  1.8999999999999999 20.8999999999999986  7.5999999999999996
  0.0000000000000000 19.0000000000000000 11.3999999999999986
  0.0000000000000000 20.8999999999999986 13.3000000000000007
  1.8999999999999999 20.8999999999999986 11.3999999999999986
  0.0000000000000000 20.8999999999999986 17.0999999999999979
  1.8999999999999999 19.0000000000000000 17.0999999999999979
  1.8999999999999999 20.8999999999999986 15.1999999999999993
  0.0000000000000000 19.0000000000000000 19.0000000000000000
  0.0000000000000000 20.8999999999999986 20.8999999999999986
  1.8999999999999999 19.0000000000000000 20.8999999999999986
  1.8999999999999999 20.8999999999999986 19.0000000000000000
  3.7999999999999998  0.0000000000000000  0.0000000000000000
  5.7000000000000002  0.0000000000000000  1.8999999999999999
  5.7000000000000002  0.0000000000000000  5.7000000000000002
  3.7999999999999998  0.0000000000000000  7.5999999999999996
  5.7000000000000002  0.0000000000000000  9.5000000000000000
  5.7000000000000002  0.0000000000000000 13.3000000000000007
  5.7000000000000002  1.8999999999999999 11.3999999999999986
  3.7999999999999998  0.0000000000000000 15.1999999999999993
  5.7000000000000002  0.0000000000000000 17.0999999999999979
  3.7999999999999998  1.8999999999999999 20.8999999999999986
  5.7000000000000002  0.0000000000000000 20.8999999999999986
  3.7999999999999998  5.7000000000000002  1.8999999999999999
  3.7999999999999998  3.7999999999999998  3.7999999999999998
  5.7000000000000002  3.7999999999999998  5.7000000000000002
  5.7000000000000002  5.7000000000000002  3.7999999999999998
  3.7999999999999998  5.7000000000000002  9.5000000000000000
  5.7000000000000002  5.7000000000000002  7.5999999999999996
  3.7999999999999998  5.7000000000000002 13.3000000000000007
  3.7999999999999998  3.7999999999999998 15.1999999999999993
  3.7999999999999998  5.7000000000000002 17.0999999999999979
  5.7000000000000002  5.7000000000000002 15.1999999999999993
  3.7999999999999998  5.7000000000000002 20.8999999999999986
  5.7000000000000002  5.7000000000000002 19.0000000000000000
  3.7999999999999998  7.5999999999999996  0.0000000000000000
  5.7000000000000002  7.5999999999999996  1.8999999999999999
  5.7000000000000002  9.5000000000000000  0.0000000000000000
  3.7999999999999998  7.5999999999999996  3.7999999999999998
  5.7000000000000002  7.5999999999999996  5.7000000000000002
  5.7000000000000002  9.5000000000000000  3.7999999999999998
  3.7999999999999998  9.5000000000000000  9.5000000000000000
  5.7000000000000002  9.5000000000000000  7.5999999999999996
  3.7999999999999998  7.5999999999999996 11.3999999999999986
  5.7000000000000002  7.5999999999999996 13.3000000000000007
  5.7000000000000002  9.5000000000000000 11.3999999999999986
  3.7999999999999998  7.5999999999999996 15.1999999999999993
  5.7000000000000002  9.5000000000000000 15.1999999999999993
  5.7000000000000002  7.5999999999999996 20.8999999999999986
  3.7999999999999998 11.3999999999999986  0.0000000000000000
  3.7999999999999998 13.3000000000000007  1.8999999999999999
  5.7000000000000002 13.3000000000000007  0.0000000000000000
  5.7000000000000002 11.3999999999999986  5.7000000000000002
  5.7000000000000002 13.3000000000000007  3.7999999999999998
  3.7999999999999998 13.3000000000000007  9.5000000000000000
  3.7999999999999998 11.3999999999999986 11.3999999999999986
  3.7999999999999998 13.3000000000000007 13.3000000000000007
  5.7000000000000002 11.3999999999999986 13.3000000000000007
  5.7000000000000002 13.3000000000000007 11.3999999999999986
  3.7999999999999998 13.3000000000000007 17.0999999999999979
  5.7000000000000002 13.3000000000000007 15.1999999999999993
  3.7999999999999998 13.3000000000000007 20.8999999999999986
  5.7000000000000002 11.3999999999999986 20.8999999999999986
  5.7000000000000002 13.3000000000000007 19.0000000000000000
  3.7999999999999998 15.1999999999999993  0.0000000000000000
  3.7999999999999998 17.0999999999999979  5.7000000000000002
  5.7000000000000002 15.1999999999999993  5.7000000000000002
  5.7000000000000002 17.0999999999999979  3.7999999999999998
  5.7000000000000002 17.0999999999999979  7.5999999999999996
  5.7000000000000002 15.1999999999999993 13.3000000000000007
  5.7000000000000002 17.0999999999999979 11.3999999999999986
  3.7999999999999998 17.0999999999999979 17.0999999999999979
  5.7000000000000002 15.1999999999999993 17.0999999999999979
  5.7000000000000002 17.0999999999999979 15.1999999999999993
  3.7999999999999998 17.0999999999999979 20.8999999999999986
  3.7999999999999998 20.8999999999999986  1.8999999999999999
  5.7000000000000002 19.0000000000000000  1.8999999999999999
  5.7000000000000002 20.8999999999999986  0.0000000000000000
  3.7999999999999998 19.0000000000000000  3.7999999999999998
  5.7000000000000002 19.0000000000000000  9.5000000000000000
  3.7999999999999998 19.0000000000000000 11.3999999999999986
  3.7999999999999998 20.8999999999999986 13.3000000000000007
  5.7000000000000002 19.0000000000000000 13.3000000000000007
  5.7000000000000002 19.0000000000000000 17.0999999999999979
  5.7000000000000002 20.8999999999999986 15.1999999999999993
  3.7999999999999998 20.8999999999999986 20.8999999999999986
  5.7000000000000002 19.0000000000000000 20.8999999999999986
  7.5999999999999996  0.0000000000000000  0.0000000000000000
  7.5999999999999996  1.8999999999999999  1.8999999999999999
  9.5000000000000000  0.0000000000000000  1.8999999999999999
  9.5000000000000000  1.8999999999999999  3.7999999999999998
  9.5000000000000000  1.8999999999999999  7.5999999999999996
  7.5999999999999996  1.8999999999999999 13.3000000000000007
  9.5000000000000000  0.0000000000000000 13.3000000000000007
  9.5000000000000000  1.8999999999999999 11.3999999999999986
  7.5999999999999996  0.0000000000000000 15.1999999999999993
  7.5999999999999996  1.8999999999999999 17.0999999999999979
  9.5000000000000000  1.8999999999999999 15.1999999999999993
  9.5000000000000000  0.0000000000000000 20.8999999999999986
  7.5999999999999996  3.7999999999999998  0.0000000000000000
  9.5000000000000000  3.7999999999999998  1.8999999999999999
  9.5000000000000000  5.7000000000000002  0.0000000000000000
  9.5000000000000000  5.7000000000000002  3.7999999999999998
  7.5999999999999996  5.7000000000000002  9.5000000000000000
  9.5000000000000000  5.7000000000000002  7.5999999999999996
  7.5999999999999996  3.7999999999999998 11.3999999999999986
  9.5000000000000000  5.7000000000000002 11.3999999999999986
  9.5000000000000000  3.7999999999999998 17.0999999999999979
  7.5999999999999996  5.7000000000000002 20.8999999999999986
  9.5000000000000000  3.7999999999999998 20.8999999999999986
  7.5999999999999996  7.5999999999999996  0.0000000000000000
  9.5000000000000000  9.5000000000000000  0.0000000000000000
  7.5999999999999996  9.5000000000000000  5.7000000000000002
  7.5999999999999996  7.5999999999999996  7.5999999999999996
  7.5999999999999996  7.5999999999999996 11.3999999999999986
  7.5999999999999996  9.5000000000000000 13.3000000000000007
  7.5999999999999996  9.5000000000000000 17.0999999999999979
  9.5000000000000000  7.5999999999999996 17.0999999999999979
  7.5999999999999996  7.5999999999999996 19.0000000000000000
  7.5999999999999996  9.5000000000000000 20.8999999999999986
  9.5000000000000000  7.5999999999999996 20.8999999999999986
  7.5999999999999996 13.3000000000000007  1.8999999999999999
  9.5000000000000000 11.3999999999999986  1.8999999999999999
  9.5000000000000000 13.3000000000000007  0.0000000000000000
  7.5999999999999996 11.3999999999999986  3.7999999999999998
  9.5000000000000000 11.3999999999999986  5.7000000000000002
  7.5999999999999996 11.3999999999999986  7.5999999999999996
  9.5000000000000000 13.3000000000000007 11.3999999999999986
  7.5999999999999996 11.3999999999999986 19.0000000000000000
  7.5999999999999996 13.3000000000000007 20.8999999999999986
  7.5999999999999996 15.1999999999999993  0.0000000000000000
  9.5000000000000000 15.1999999999999993  1.8999999999999999
  9.5000000000000000 17.0999999999999979  0.0000000000000000
  7.5999999999999996 17.0999999999999979  5.7000000000000002
  9.5000000000000000 15.1999999999999993  5.7000000000000002
  7.5999999999999996 15.1999999999999993  7.5999999999999996
  9.5000000000000000 17.0999999999999979  7.5999999999999996
  7.5999999999999996 15.1999999999999993 11.3999999999999986
  9.5000000000000000 15.1999999999999993 13.3000000000000007
  9.5000000000000000 17.0999999999999979 11.3999999999999986
  7.5999999999999996 15.1999999999999993 15.1999999999999993
  9.5000000000000000 15.1999999999999993 17.0999999999999979
  9.5000000000000000 15.1999999999999993 20.8999999999999986
  9.5000000000000000 17.0999999999999979 19.0000000000000000
  7.5999999999999996 20.8999999999999986  1.8999999999999999
  9.5000000000000000 19.0000000000000000  1.8999999999999999
  9.5000000000000000 20.8999999999999986  0.0000000000000000
  7.5999999999999996 19.0000000000000000  3.7999999999999998
  7.5999999999999996 19.0000000000000000 11.3999999999999986
  9.5000000000000000 19.0000000000000000 13.3000000000000007
  9.5000000000000000 20.8999999999999986 11.3999999999999986
  9.5000000000000000 20.8999999999999986 15.1999999999999993
  7.5999999999999996 20.8999999999999986 20.8999999999999986
 11.3999999999999986  0.0000000000000000  3.7999999999999998
 13.3000000000000007  1.8999999999999999  3.7999999999999998
 11.3999999999999986  1.8999999999999999  9.5000000000000000
 13.3000000000000007  1.8999999999999999  7.5999999999999996
 11.3999999999999986  0.0000000000000000 11.3999999999999986
 13.3000000000000007  0.0000000000000000 13.3000000000000007
 13.3000000000000007  1.8999999999999999 11.3999999999999986
 11.3999999999999986  0.0000000000000000 19.0000000000000000
 13.3000000000000007  0.0000000000000000 20.8999999999999986
 11.3999999999999986  5.7000000000000002  1.8999999999999999
 13.3000000000000007  3.7999999999999998  1.8999999999999999
 13.3000000000000007  5.7000000000000002  0.0000000000000000
 11.3999999999999986  3.7999999999999998  3.7999999999999998
 11.3999999999999986  5.7000000000000002  5.7000000000000002
 13.3000000000000007  3.7999999999999998  5.7000000000000002
 11.3999999999999986  3.7999999999999998  7.5999999999999996
 13.3000000000000007  5.7000000000000002  7.5999999999999996
 11.3999999999999986  3.7999999999999998 11.3999999999999986
 13.3000000000000007  3.7999999999999998 13.3000000000000007
 11.3999999999999986  3.7999999999999998 15.1999999999999993
 11.3999999999999986  5.7000000000000002 17.0999999999999979
 13.3000000000000007  3.7999999999999998 17.0999999999999979
 11.3999999999999986  3.7999999999999998 19.0000000000000000
 11.3999999999999986  5.7000000000000002 20.8999999999999986
 13.3000000000000007  3.7999999999999998 20.8999999999999986
 13.3000000000000007  7.5999999999999996  1.8999999999999999
 13.3000000000000007  9.5000000000000000  0.0000000000000000
 11.3999999999999986  9.5000000000000000  5.7000000000000002
 13.3000000000000007  9.5000000000000000  7.5999999999999996
 11.3999999999999986  9.5000000000000000 13.3000000000000007
 13.3000000000000007  9.5000000000000000 11.3999999999999986
 11.3999999999999986  9.5000000000000000 17.0999999999999979
 11.3999999999999986  7.5999999999999996 19.0000000000000000
 11.3999999999999986  9.5000000000000000 20.8999999999999986
 13.3000000000000007  7.5999999999999996 20.8999999999999986
 11.3999999999999986 11.3999999999999986  0.0000000000000000
 11.3999999999999986 13.3000000000000007  1.8999999999999999
 13.3000000000000007 13.3000000000000007  0.0000000000000000
 11.3999999999999986 11.3999999999999986  3.7999999999999998
 11.3999999999999986 11.3999999999999986  7.5999999999999996
 13.3000000000000007 11.3999999999999986  9.5000000000000000
 13.3000000000000007 13.3000000000000007  7.5999999999999996
 11.3999999999999986 11.3999999999999986 11.3999999999999986
 11.3999999999999986 13.3000000000000007 13.3000000000000007
 13.3000000000000007 11.3999999999999986 13.3000000000000007
 11.3999999999999986 11.3999999999999986 15.1999999999999993
 13.3000000000000007 11.3999999999999986 17.0999999999999979
 11.3999999999999986 11.3999999999999986 19.0000000000000000
 11.3999999999999986 13.3000000000000007 20.8999999999999986
 13.3000000000000007 15.1999999999999993  1.8999999999999999
 13.3000000000000007 17.0999999999999979  0.0000000000000000
 11.3999999999999986 15.1999999999999993  3.7999999999999998
 11.3999999999999986 17.0999999999999979  5.7000000000000002
 13.3000000000000007 15.1999999999999993  5.7000000000000002
 11.3999999999999986 15.1999999999999993  7.5999999999999996
 11.3999999999999986 17.0999999999999979  9.5000000000000000
 13.3000000000000007 15.1999999999999993  9.5000000000000000
 13.3000000000000007 17.0999999999999979  7.5999999999999996
 11.3999999999999986 17.0999999999999979 13.3000000000000007
 13.3000000000000007 15.1999999999999993 13.3000000000000007
 11.3999999999999986 15.1999999999999993 15.1999999999999993
 13.3000000000000007 17.0999999999999979 15.1999999999999993
 11.3999999999999986 15.1999999999999993 19.0000000000000000
 11.3999999999999986 17.0999999999999979 20.8999999999999986
 13.3000000000000007 17.0999999999999979 19.0000000000000000
 13.3000000000000007 19.0000000000000000  5.7000000000000002
 13.3000000000000007 20.8999999999999986  3.7999999999999998
 11.3999999999999986 20.8999999999999986  9.5000000000000000
 13.3000000000000007 20.8999999999999986  7.5999999999999996
 11.3999999999999986 19.0000000000000000 11.3999999999999986
 13.3000000000000007 19.0000000000000000 13.3000000000000007
 11.3999999999999986 19.0000000000000000 19.0000000000000000
 15.1999999999999993  0.0000000000000000  0.0000000000000000
 15.1999999999999993  1.8999999999999999  1.8999999999999999
 15.1999999999999993  1.8999999999999999  5.7000000000000002
 17.0999999999999979  0.0000000000000000  5.7000000000000002
 17.0999999999999979  1.8999999999999999  3.7999999999999998
 15.1999999999999993  0.0000000000000000  7.5999999999999996
 17.0999999999999979  0.0000000000000000  9.5000000000000000
 15.1999999999999993  1.8999999999999999 13.3000000000000007
 17.0999999999999979  0.0000000000000000 13.3000000000000007
 15.1999999999999993  0.0000000000000000 15.1999999999999993
 15.1999999999999993  1.8999999999999999 17.0999999999999979
 17.0999999999999979  0.0000000000000000 17.0999999999999979
 15.1999999999999993  1.8999999999999999 20.8999999999999986
 17.0999999999999979  0.0000000000000000 20.8999999999999986
 15.1999999999999993  3.7999999999999998  0.0000000000000000
 17.0999999999999979  3.7999999999999998  1.8999999999999999
 17.0999999999999979  5.7000000000000002  0.0000000000000000
 17.0999999999999979  3.7999999999999998  5.7000000000000002
 15.1999999999999993  5.7000000000000002  9.5000000000000000
 17.0999999999999979  5.7000000000000002  7.5999999999999996
 15.1999999999999993  5.7000000000000002 13.3000000000000007
 17.0999999999999979  5.7000000000000002 11.3999999999999986
 15.1999999999999993  3.7999999999999998 15.1999999999999993
 15.1999999999999993  5.7000000000000002 17.0999999999999979
 17.0999999999999979  3.7999999999999998 17.0999999999999979
 15.1999999999999993  3.7999999999999998 19.0000000000000000
 15.1999999999999993  5.7000000000000002 20.8999999999999986
 17.0999999999999979  3.7999999999999998 20.8999999999999986
 15.1999999999999993  7.5999999999999996  0.0000000000000000
 15.1999999999999993  9.5000000000000000  1.8999999999999999
 17.0999999999999979  9.5000000000000000  0.0000000000000000
 17.0999999999999979  9.5000000000000000  3.7999999999999998
 15.1999999999999993  9.5000000000000000  9.5000000000000000
 17.0999999999999979  7.5999999999999996  9.5000000000000000
 17.0999999999999979  9.5000000000000000  7.5999999999999996
 15.1999999999999993  7.5999999999999996 11.3999999999999986
 15.1999999999999993  9.5000000000000000 13.3000000000000007
 17.0999999999999979  9.5000000000000000 11.3999999999999986
 15.1999999999999993  9.5000000000000000 17.0999999999999979
 17.0999999999999979  7.5999999999999996 17.0999999999999979
 17.0999999999999979  9.5000000000000000 15.1999999999999993
 15.1999999999999993  7.5999999999999996 19.0000000000000000
 17.0999999999999979  7.5999999999999996 20.8999999999999986
 15.1999999999999993 13.3000000000000007  1.8999999999999999
 17.0999999999999979 11.3999999999999986  1.8999999999999999
 15.1999999999999993 11.3999999999999986  3.7999999999999998
 17.0999999999999979 13.3000000000000007  3.7999999999999998
 15.1999999999999993 13.3000000000000007  9.5000000000000000
 15.1999999999999993 11.3999999999999986 11.3999999999999986
 17.0999999999999979 13.3000000000000007 11.3999999999999986
 15.1999999999999993 11.3999999999999986 15.1999999999999993
 17.0999999999999979 11.3999999999999986 17.0999999999999979
 17.0999999999999979 13.3000000000000007 15.1999999999999993
 17.0999999999999979 13.3000000000000007 19.0000000000000000
 15.1999999999999993 15.1999999999999993  0.0000000000000000
 15.1999999999999993 17.0999999999999979  1.8999999999999999
 17.0999999999999979 15.1999999999999993  1.8999999999999999
 17.0999999999999979 17.0999999999999979  0.0000000000000000
 15.1999999999999993 15.1999999999999993  3.7999999999999998
 17.0999999999999979 15.1999999999999993  5.7000000000000002
 17.0999999999999979 17.0999999999999979  3.7999999999999998
 15.1999999999999993 15.1999999999999993  7.5999999999999996
 17.0999999999999979 15.1999999999999993  9.5000000000000000
 17.0999999999999979 17.0999999999999979  7.5999999999999996
 15.1999999999999993 17.0999999999999979 13.3000000000000007
 17.0999999999999979 17.0999999999999979 11.3999999999999986
 15.1999999999999993 17.0999999999999979 17.0999999999999979
 17.0999999999999979 15.1999999999999993 20.8999999999999986
 15.1999999999999993 19.0000000000000000  0.0000000000000000
 17.0999999999999979 19.0000000000000000  1.8999999999999999
 15.1999999999999993 19.0000000000000000  3.7999999999999998
 17.0999999999999979 19.0000000000000000  5.7000000000000002
 17.0999999999999979 20.8999999999999986  3.7999999999999998
 15.1999999999999993 19.0000000000000000  7.5999999999999996
 15.1999999999999993 20.8999999999999986  9.5000000000000000
 17.0999999999999979 19.0000000000000000  9.5000000000000000
 15.1999999999999993 20.8999999999999986 20.8999999999999986
 17.0999999999999979 20.8999999999999986 19.0000000000000000
 19.0000000000000000  0.0000000000000000  0.0000000000000000
 20.8999999999999986  0.0000000000000000  1.8999999999999999
 20.8999999999999986  1.8999999999999999  0.0000000000000000
 20.8999999999999986  0.0000000000000000  5.7000000000000002
 20.8999999999999986  1.8999999999999999  3.7999999999999998
 19.0000000000000000  1.8999999999999999  9.5000000000000000
 19.0000000000000000  0.0000000000000000 11.3999999999999986
 19.0000000000000000  1.8999999999999999 13.3000000000000007
 20.8999999999999986  0.0000000000000000 13.3000000000000007
 19.0000000000000000  0.0000000000000000 15.1999999999999993
 19.0000000000000000  1.8999999999999999 17.0999999999999979
 19.0000000000000000  5.7000000000000002  1.8999999999999999
 20.8999999999999986  3.7999999999999998  1.8999999999999999
 20.8999999999999986  5.7000000000000002  0.0000000000000000
 19.0000000000000000  3.7999999999999998  3.7999999999999998
 20.8999999999999986  5.7000000000000002  3.7999999999999998
 19.0000000000000000  5.7000000000000002  9.5000000000000000
 20.8999999999999986  3.7999999999999998  9.5000000000000000
 20.8999999999999986  3.7999999999999998 13.3000000000000007
 19.0000000000000000  5.7000000000000002 17.0999999999999979
 19.0000000000000000  3.7999999999999998 19.0000000000000000
 19.0000000000000000  5.7000000000000002 20.8999999999999986
 20.8999999999999986  3.7999999999999998 20.8999999999999986
 19.0000000000000000  9.5000000000000000  1.8999999999999999
 20.8999999999999986  9.5000000000000000  0.0000000000000000
 20.8999999999999986  9.5000000000000000  3.7999999999999998
 19.0000000000000000  9.5000000000000000  9.5000000000000000
 20.8999999999999986  7.5999999999999996  9.5000000000000000
 20.8999999999999986  9.5000000000000000  7.5999999999999996
 19.0000000000000000  7.5999999999999996 11.3999999999999986
 19.0000000000000000  9.5000000000000000 13.3000000000000007
 20.8999999999999986  7.5999999999999996 13.3000000000000007
 20.8999999999999986  9.5000000000000000 11.3999999999999986
 19.0000000000000000  7.5999999999999996 15.1999999999999993
 19.0000000000000000  9.5000000000000000 17.0999999999999979
 19.0000000000000000  7.5999999999999996 19.0000000000000000
 20.8999999999999986  7.5999999999999996 20.8999999999999986
 19.0000000000000000 11.3999999999999986  3.7999999999999998
 19.0000000000000000 13.3000000000000007  9.5000000000000000
 19.0000000000000000 11.3999999999999986 11.3999999999999986
 19.0000000000000000 13.3000000000000007 13.3000000000000007
 20.8999999999999986 11.3999999999999986 13.3000000000000007
 19.0000000000000000 11.3999999999999986 15.1999999999999993
 19.0000000000000000 13.3000000000000007 17.0999999999999979
 20.8999999999999986 11.3999999999999986 17.0999999999999979
 19.0000000000000000 11.3999999999999986 19.0000000000000000
 20.8999999999999986 11.3999999999999986 20.8999999999999986
 20.8999999999999986 15.1999999999999993  1.8999999999999999
 20.8999999999999986 17.0999999999999979  0.0000000000000000
 20.8999999999999986 15.1999999999999993  9.5000000000000000
 19.0000000000000000 17.0999999999999979 13.3000000000000007
 20.8999999999999986 15.1999999999999993 17.0999999999999979
 20.8999999999999986 17.0999999999999979 15.1999999999999993
 19.0000000000000000 15.1999999999999993 19.0000000000000000
 19.0000000000000000 17.0999999999999979 20.8999999999999986
 20.8999999999999986 17.0999999999999979 19.0000000000000000
 20.8999999999999986 19.0000000000000000  1.8999999999999999
 20.8999999999999986 20.8999999999999986  0.0000000000000000
 19.0000000000000000 20.8999999999999986  5.7000000000000002
 20.8999999999999986 19.0000000000000000  5.7000000000000002
 20.8999999999999986 20.8999999999999986  3.7999999999999998
 19.0000000000000000 20.8999999999999986  9.5000000000000000
 20.8999999999999986 20.8999999999999986  7.5999999999999996
 19.0000000000000000 19.0000000000000000 11.3999999999999986
 19.0000000000000000 20.8999999999999986 13.3000000000000007
 20.8999999999999986 19.0000000000000000 13.3000000000000007
 20.8999999999999986 20.8999999999999986 15.1999999999999993
 19.0000000000000000 19.0000000000000000 19.0000000000000000
 19.0000000000000000 20.8999999999999986 20.8999999999999986
  1.8999999999999999  7.5999999999999996  5.7000000000000002
 17.0999999999999979  1.8999999999999999 15.1999999999999993
 13.3000000000000007 20.8999999999999986  0.0000000000000000
 17.0999999999999979 19.0000000000000000 13.3000000000000007
 19.0000000000000000 19.0000000000000000  0.0000000000000000
  9.5000000000000000  9.5000000000000000 19.0000000000000000
  7.5999999999999996 19.0000000000000000  0.0000000000000000
  7.5999999999999996  0.0000000000000000  3.7999999999999998
 15.1999999999999993 13.3000000000000007 20.8999999999999986
  3.7999999999999998  5.7000000000000002  5.7000000000000002
 20.8999999999999986 13.3000000000000007 15.1999999999999993
 11.3999999999999986  0.0000000000000000  0.0000000000000000
 15.1999999999999993 11.3999999999999986  0.0000000000000000
  9.5000000000000000 19.0000000000000000 20.8999999999999986
 20.8999999999999986  5.7000000000000002 15.1999999999999993
  0.0000000000000000 15.1999999999999993 11.3999999999999986
  5.7000000000000002 11.3999999999999986  9.5000000000000000
 20.8999999999999986 13.3000000000000007  7.5999999999999996
  1.8999999999999999  0.0000000000000000  1.8999999999999999
  9.5000000000000000 13.3000000000000007 15.1999999999999993
 19.0000000000000000 17.0999999999999979  9.5000000000000000
  0.0000000000000000  1.8999999999999999 20.8999999999999986
 15.1999999999999993 13.3000000000000007 17.0999999999999979
 17.0999999999999979  5.7000000000000002  3.7999999999999998
  7.5999999999999996  3.7999999999999998 15.1999999999999993
  7.5999999999999996 17.0999999999999979  1.8999999999999999
 19.0000000000000000 15.1999999999999993 11.3999999999999986
 19.0000000000000000  3.7999999999999998  7.5999999999999996
 13.3000000000000007  9.5000000000000000 19.0000000000000000
 15.1999999999999993 17.0999999999999979  9.5000000000000000
 11.3999999999999986  1.8999999999999999  5.7000000000000002
  7.5999999999999996  7.5999999999999996 15.1999999999999993
 15.1999999999999993  0.0000000000000000 11.3999999999999986
 19.0000000000000000 11.3999999999999986  0.0000000000000000
  1.8999999999999999  3.7999999999999998 20.8999999999999986
  3.7999999999999998  1.8999999999999999  5.7000000000000002
 17.0999999999999979 20.8999999999999986  0.0000000000000000
  9.5000000000000000 20.8999999999999986 19.0000000000000000
 19.0000000000000000  9.5000000000000000 20.8999999999999986
  5.7000000000000002  3.7999999999999998  9.5000000000000000
 19.0000000000000000 15.1999999999999993  3.7999999999999998
 19.0000000000000000 17.0999999999999979  1.8999999999999999
  0.0000000000000000 15.1999999999999993  3.7999999999999998
  9.5000000000000000 13.3000000000000007  7.5999999999999996
 20.8999999999999986  0.0000000000000000 20.8999999999999986
 17.0999999999999979  0.0000000000000000  1.8999999999999999
 17.0999999999999979 19.0000000000000000 17.0999999999999979
 20.8999999999999986 13.3000000000000007  3.7999999999999998
 20.8999999999999986  7.5999999999999996 17.0999999999999979
 11.3999999999999986 20.8999999999999986 13.3000000000000007
 19.0000000000000000  1.8999999999999999 20.8999999999999986
 11.3999999999999986 17.0999999999999979  1.8999999999999999
  5.7000000000000002 11.3999999999999986 17.0999999999999979
  1.8999999999999999  9.5000000000000000  7.5999999999999996
  5.7000000000000002  7.5999999999999996  9.5000000000000000