Mo Fe Cu                                
   1.00000000000000     
    22.1254666486523490   -0.0028620004845824    0.0095449075924742
    -0.0026423417184884   22.5729636894720969    0.0299942803717743
     0.0099005178836551    0.0298422132633817   22.8582312597483828
   Mo   Fe   Cu
   432   216   216
Direct
  0.0083486465685921  0.0056981547003843 -0.0084024759113268
  0.0080884330530448  0.0834843577832615  0.0807412548251452
  0.0902127705336291  0.0927420500636256 -0.0043904500114985
 -0.0028486020176949  0.0829911687448764  0.2547150080828534
  0.0844382118769117  0.0081837521788141  0.2569224777858796
  0.0818755593201463  0.0060321391528437  0.4057640218017275
 -0.0022963078882048  0.0073397249278186  0.4929002124674755
  0.0019745506543011  0.0073885488612432  0.6665230407094772
 -0.0076719701028073  0.0728103359426200  0.7561453802731428
  0.0924389297605145  0.0160371278581293  0.7591839721432276
  0.0875276188015213  0.0860294940569749  0.6623873611067638
 -0.0069510068173667  0.2427566207921756  0.0866270120470155
  0.0806794454057009  0.1641204537098096  0.2547672915710493
 -0.0016346031719208  0.2538434443118574  0.4115437001065897
  0.0753085724199521  0.1636756117923024  0.4095580009030102
  0.0017940535916750  0.1609830762159825  0.4996996283879880
  0.0817223697970018  0.2555351604898807  0.4962655301693144
  0.0003107784380827  0.1628515713289207  0.6670156048522476
  0.0788251161246540  0.1591528548558121  0.7593395369026880
  0.0827552102667174  0.2479643181667111  0.6636589928883914
 -0.0069647067621642  0.1660805602620297  0.8348379215558351
  0.0811807569825506  0.2574135088725198  0.8318243442681594
  0.0756985596498427  0.4137940702852668  0.0057607583865586
 -0.0045453549161426  0.3333646532504972  0.1703413938638483
 -0.0093466141163165  0.4152198412051033  0.2532506715958974
 -0.0119584009568160  0.4086202057960503  0.4102270226076471
  0.0003033021095990  0.3303342102766586  0.6688029706630261
  0.0819978017299808  0.4123434841218447  0.6677056507842639
 -0.0085563584457011  0.4150397373196912  0.9210541096546858
  0.0751004051275694  0.3283156904192471  0.9195633485590220
  0.0814566754075682  0.4016642854362507  0.8338887224609499
 -0.0014076558535232  0.5871222893825873  0.0886696113233738
  0.0901907247636937  0.5748555001212317  0.0042941538608081
  0.0715574383003943  0.5861951079042580  0.1698411072870261
  0.0726833822585842  0.4971151002128737  0.4112752205175673
  0.0764936223521445  0.5751085800894450  0.3318229608790838
 -0.0024568095286273  0.5888492920071646  0.5752876457258501
 -0.0013271316233319  0.4926430235047204  0.6660402404768807
 -0.0015195897342778  0.5843932577735685  0.7580398540566042
  0.0757987165311735  0.5737620323703879  0.6613225608164122
  0.0069172916095168  0.5824737968219736  0.9139666051381486
  0.0093945318583342  0.6620923697055509 -0.0014020249619108
  0.0009857700849277  0.7365694231925901  0.0847041589281089
  0.0884899530609354  0.7543251025244007  0.0063550724207412
 -0.0083763571462910  0.6654656293749165  0.3314852542001585
  0.0778339223965510  0.6609484589228712  0.4116556513689733
  0.0067586641658803  0.7518170348539623  0.5718828753945515
  0.0910351882337768  0.7471265712170977  0.4901795595926347
  0.0096986013919737  0.6741453392006713  0.6624686388442960
  0.0823846373760305  0.6657269511515111  0.7550372881863496
  0.0896422643452548  0.7547210341714491  0.6644405312165572
  0.0873831095835933  0.6675856036925345  0.9090633970208002
  0.0853485622841816  0.7565468198933134  0.8314135913588352
  0.0076893468346132  0.9240917474310925  0.0840946981846083
  0.0903743609237246  0.8321172125805359  0.0957091159659996
  0.0904068444066735  0.9175201064363785  0.0005190310496756
 -0.0043111893207534  0.8230907862945405  0.1614361334818396
 -0.0098255393374596  0.9199515565886243  0.2488213292273118
  0.0705504192355468  0.8283873508907895  0.2472197948860903
  0.0846479687358862  0.9241868567825642  0.1737643266656224
  0.0888142800802552  0.8278545870273052  0.4106964520977499
  0.0787464466664336  0.9178257228988601  0.3280622007393116
  0.0005868868630594  0.8369365020324766  0.4939994258693816
  0.0136827970323355  0.9217959135204348  0.5851769675272516
  0.0876417196357619  0.9212045616810538  0.4944039149134056
  0.0065939233923202  0.9242566112925723  0.7589162844425424
  0.0955161038445476  0.8380740408723948  0.7536724304344962
  0.0992889890865067  0.9235332087096557  0.6662130044182886
 -0.0092041509269899  0.8334751932095025  0.8313223038920246
  0.0002732004505484  0.9183096700622951  0.9113372474440854
  0.0910586112059636  0.8324414823337296  0.9173354709752276
  0.0926151920787958  0.9194582547952685  0.8375163444060419
  0.1724126137837901  0.0069083301421761  0.0067228549128005
  0.2529517328054783  0.0116577430262793  0.0985047127389889
  0.2469682573419719  0.0092147676740962  0.2494352936799719
  0.1691259459467312  0.0098792935146601  0.3330289677653682
  0.2516461514427433 -0.0017633763536780  0.4111652119115936
  0.2521853588800880  0.0116978708795027  0.5751862094396993
  0.2530138458089849  0.0928546181574467  0.4902922555678099
  0.1756979716598144  0.0138686113331722  0.6696583777035846
  0.2547278033433004  0.0130079429618727  0.7550258397113045
  0.1686765936443879  0.0928362275632021  0.9184610004076861
  0.2565215139880431  0.0129064520610148  0.9140043833778784
  0.1599466449073773  0.2502948145438976  0.0864832858838891
  0.1625583384833834  0.1710022342424366  0.1690890685635647
  0.2493180326254445  0.1699034793513470  0.2528415446303151
  0.2575384567373994  0.2451316747435273  0.1706801525484210
  0.1606929130903580  0.2498696284060194  0.4127999911789847
  0.2464670222024029  0.2544759200243339  0.3309828634219610
  0.1683522122270968  0.2521162554851811  0.5716968642638280
  0.1678339106729897  0.1677493538811338  0.6639598992794070
  0.1665137493056488  0.2495314145907518  0.7545855094626504
  0.2576262315510916  0.2467778615659826  0.6683651329053667
  0.1706028719033358  0.2536477006664344  0.9184015996677420
  0.2578876621634860  0.2428885784895659  0.8280201582465564
  0.1657986595938166  0.3350903358596378  0.0107962154231422
  0.2503818446822353  0.3319072119245544  0.1023528007133561
  0.2497942252086614  0.4112860413652417  0.0131093901994994
  0.1548162815942315  0.3276563121306928  0.1742773032141156
  0.2501113200115831  0.3296918001879006  0.2457180592269629
  0.2505050302064477  0.4208059534487681  0.1789570629235076
  0.1586500201946518  0.4239103362153832  0.4004240773876063
  0.2507131648085147  0.4120382738574078  0.3293670853989308
  0.1613114403999914  0.3437684581290209  0.4921319823541094
  0.2511684118584261  0.3330625066635874  0.5799489948781288
  0.2523640876310716  0.4175052968282630  0.4885866269015660
  0.1614589515474384  0.3300450183578235  0.6677526881103103
  0.2493256545346621  0.4124923189316638  0.6645516289110089
  0.2561723304592760  0.3354494046522826  0.9164765373634887
  0.1637652627355500  0.4883079749668797  0.0072242585548883
  0.1614927173464669  0.5787258076120160  0.0913727555979152
  0.2408717034577375  0.5823449938620345  0.0061108494177405
  0.2475720174188281  0.5035417702229891  0.2568727919005487
  0.2530075344022325  0.5801012281815743  0.1678495112380574
  0.1719678270478704  0.5742857049902683  0.4142629912143413
  0.1608042782084793  0.4911546747338809  0.4949871139366798
  0.1658973633539945  0.5712180457568573  0.5765613629513966
  0.2574176978430899  0.4933128723901450  0.5813187662124319
  0.2606788010460029  0.5772696274240139  0.4964578498650934
  0.1623553132946458  0.5769935949941040  0.7458728404012367
  0.2525730556027699  0.5748380053802832  0.6640211744033203
  0.1650835173146051  0.5803952982303374  0.9152901357899056
  0.2419687145185650  0.4902713610345804  0.9155400003158519
  0.2455903281848107  0.5733475695671379  0.8262699881010294
  0.1647573035389447  0.6696880554411474  0.0061759581597584
  0.1624824352507905  0.7425746770282097  0.2534398246489048
  0.2543396040726554  0.6523262581729268  0.2544779132356500
  0.2584243560295517  0.7387678437613412  0.1822560516295006
  0.2480056081946104  0.7443550508129970  0.3307152559408781
  0.2533432851627899  0.6602487298952983  0.5822858313352571
  0.2475440442192933  0.7404057341890659  0.4887818920170734
  0.1689442938716518  0.7443614333877866  0.7489748449552899
  0.2528001421863915  0.6595624434280165  0.7425057061748165
  0.2472677337687823  0.7460003901404272  0.6619329669048836
  0.1732351630128572  0.7485481143715604  0.9149192189055135
  0.1724822084279680  0.9201201330852921  0.0946632829221422
  0.2569699408202711  0.8259488514242804  0.0952419246986507
  0.2557992143967807  0.9179588266890149  0.0054764461458522
  0.1741395917590297  0.8313088573553479  0.1829213929363915
  0.2498482466199977  0.8367085129183690  0.3994531449060064
  0.1747756659620689  0.8318861981365355  0.4904137715043380
  0.1711165027153763  0.9247291068024205  0.5759228233351807
  0.2462440325265863  0.8276357458418447  0.5815939651533755
  0.2426154474829164  0.8342859337135776  0.7502963442394910
  0.2435719660477732  0.9147194947671302  0.6660795516708329
  0.1807872615040248  0.9208133800976420  0.9180239521797355
  0.2533458008308525  0.8293843321734011  0.9137998467253927
  0.3249413931487730  0.0182547385815688  0.0016751305047703
  0.3315943409865261  0.0946860774817845  0.0928722919295695
  0.4115214829493121  0.0030455387737901  0.0771176132423938
  0.4208419192360478  0.0810945486513091  0.1755728478813910
  0.4246803410961547  0.0807533373640542  0.3281378295556400
  0.3369116960401348  0.0954505942166810  0.5828450194778019
  0.4086512069288279 -0.0101446640478574  0.5843455959272802
  0.4173999724580407  0.0769068377367809  0.4966220131241187
  0.3213554406680265 -0.0003190124467859  0.6686807216301536
  0.3364363033603495  0.0925357191393436  0.7521935335523848
  0.4150542138846098  0.0736366661176651  0.6645232189990510
  0.4129134427648953  0.0063054709790468  0.9238102046578117
  0.3333310938445224  0.1623098922837115  0.0037037022590922
  0.4293302372696708  0.1617657902078364  0.0807979447196810
  0.4240398935115636  0.2527822285928701  0.0108907160831760
  0.4262980734789500  0.2501197953970174  0.1642149642085540
  0.3350118871499255  0.2499585413739909  0.4117681547746618
  0.4295341763118290  0.2484834552437408  0.3366402457574824
  0.3364773716451240  0.1714588350705076  0.4948773731881378
  0.4218697313510278  0.2503313192656052  0.4992549561730244
  0.4183957011353766  0.1727600852732458  0.7506978890511373
  0.3393581689012838  0.2441887044797823  0.9209873407386538
  0.4276781065897595  0.1615679325309927  0.9192373899133173
  0.3304403975402583  0.3302016202437581  0.0149401151440869
  0.4104176998522984  0.4142103481493410  0.0037172094399325
  0.3488737488822422  0.4096769028466943  0.2531429949705650
  0.3438504094431398  0.3337117739577526  0.3378766705297429
  0.3347031130736018  0.3313313513412487  0.4933091176077465
  0.3439749866532352  0.4128678159896030  0.5804669577031994
  0.3362578141924113  0.4170855409899544  0.7463503855458860
  0.4120477240829228  0.3292765517608027  0.7425894755206789
  0.3346880295522508  0.3342418402230038  0.8284828704682119
  0.3333889520728842  0.4232509740028121  0.9167999807227778
  0.4128948250497517  0.3351300659853707  0.9183927445745721
  0.3397350151754592  0.5908417440687610  0.0759170249882719
  0.4174587379360608  0.4954518117576248  0.0861527237416344
  0.4184298386382652  0.5815805142841356 -0.0072071287220304
  0.3399614480254333  0.5011657737895995  0.1702354762835431
  0.4199787272072398  0.5024264013741686  0.2541505384242602
  0.3407011749845461  0.5033002723829910  0.3368608858512101
  0.4128735272566578  0.5821341178202386  0.4915185499367690
  0.3360338223589109  0.4954236330795226  0.8273946877910766
  0.3248776889952118  0.5727170141191265  0.9161085933862351
  0.3247779872423689  0.6741996607026320 -0.0010963486629210
  0.4242067815997588  0.6772816283337243  0.0809906964053155
  0.4169445424633243  0.7542239023798131 -0.0076620185689228
  0.3455871120281200  0.7471089669395906  0.2622551685678700
  0.4212137544711920  0.6600830058734396  0.2535757957341019
  0.3401424705493868  0.6537488160165473  0.3461375927764546
  0.4252363945999459  0.7535250566218438  0.3449478377098958
  0.3375790795455725  0.6683594086634619  0.4902840037471594
  0.4202143152161762  0.6732869529457702  0.5811068872913311
  0.4129291526245093  0.7586651164875318  0.4870691461733906
  0.3419486101430138  0.6685607198863702  0.6654157710845783
  0.4082061388093170  0.6649472297737804  0.7561394251115757
  0.4118759538039155  0.6662668374434636  0.9129053430483003
  0.4046206776490214  0.7522996663984850  0.8392981497487214
  0.3264582648756176  0.9215915704758577  0.0905978926979041
  0.4061999891931488  0.8279899103071996  0.0841146932472013
  0.4065874858059598  0.9126377126625136 -0.0016370811091077
  0.3325562983198505  0.8349106523560483  0.1788219563179813
  0.3195558870361736  0.8317113674910048  0.4900342307291257
  0.4082656591221981  0.8390044329083712  0.5833377119660347
  0.4023246116740062  0.9127205794658750  0.4966300513674344
  0.4096907088804413  0.9154887862983534  0.6712882360721801
  0.3286088269864880  0.9194482172587339  0.9124920254610497
  0.4953838761341067 -0.0015378010878153  0.1682340345163323
  0.5850007282062282  0.0709830096152016  0.1685617009334626
  0.4993571357818316  0.0684139307253203  0.4199261394906136
  0.5790844492814504  0.0737312847591788  0.3378157451591243
  0.4989363425207978 -0.0159603545595192  0.5028590279365275
  0.5819919940329720 -0.0116375208441801  0.5869457523435629
  0.5855391805929959  0.0764701932721513  0.4998609588940668
  0.4855232789252791 -0.0128026496037174  0.8327504283254983
  0.5698392782166194 -0.0103655752849403  0.9160544955827427
  0.5145897269037837  0.2583832436307752  0.0801340176450385
  0.5880122814473855  0.1669269972680028  0.0856334814068791
  0.5947123458056144  0.2586275863471526 -0.0033656853510901
  0.5093833032843970  0.1615995893993920  0.1692037249702079
  0.5062901353906676  0.2574817669404293  0.2526621175012276
  0.5880913491148505  0.1685961464568337  0.2508698457374139
  0.5107754468750806  0.1641332166851328  0.3395685306372205
  0.5929904256248111  0.2553328136506212  0.3346095878517831
  0.5009514660963844  0.1650177303558226  0.4959575645253321
  0.5715996465600578  0.1642356396890078  0.5853545837116936
  0.4907067391447224  0.1653843399994927  0.6633856954295799
  0.5022947717657773  0.2594624789413994  0.7465312691692763
  0.5719079422203309  0.1620381991846076  0.7466035569809926
  0.5021642242348535  0.1634288038462418  0.8335942731084777
  0.5019933345696878  0.2545350974564360  0.9218397613318404
  0.5798673357187369  0.1583825826847667  0.9134633354879831
  0.6007060162627657  0.3432690420827063  0.0876718063723845
  0.5980293272304039  0.4263866942514216 -0.0006856861445932
  0.4972560850184465  0.4100673016693440  0.2551720386264283
  0.5906946362187521  0.4155878794895433  0.3348611060929005
  0.4973179744126046  0.4146598403511450  0.5811972202385968
  0.5919929977697284  0.4158168302640028  0.4991473005074937
  0.5007497350642263  0.4142428446427894  0.7468499026929610
  0.5010050825130676  0.3355055060358136  0.8302382934994694
  0.5010470736855395  0.4161081940353407  0.9077878317257977
  0.5925075562499605  0.3418714698417473  0.9120508283694218
  0.5013974138675518  0.4898276911358900 -0.0040480154692207
  0.4991331672940350  0.5835479280971512  0.0790692939439989
  0.5834996440821195  0.5729958015882234 -0.0061870773530502
  0.4966576126167077  0.4931068599952787  0.1710018490519816
  0.5002011375457945  0.5006978812631006  0.3404242468954452
  0.5928627895029736  0.5098456109215121  0.4197281019820460
  0.5859885542048529  0.5798860201958433  0.3311956168838208
  0.5005528573401912  0.5002651268870064  0.4961756703429853
  0.4921771770878979  0.5845793480333663  0.5833498182200614
  0.5821603291374784  0.5085479939527058  0.5881181601261867
  0.4979137362210504  0.5029684013623662  0.6665577106646573
  0.5908503784085647  0.5085991406214444  0.7457536171311965
  0.5038284147570747  0.5012823332447391  0.8246757807896687
  0.5050163951641301  0.5775060736970054  0.9107468734031406
  0.5779021106427472  0.6660253882896832  0.0842710441809667
  0.5773899744882366  0.7581875014411861 -0.0031651622241832
  0.5003927908772009  0.6695363214376671  0.1669901744311641
  0.4923044122048095  0.7598999375919743  0.2464707679468513
  0.5803135201957726  0.6696172270241086  0.2468426605595819
  0.5038006484526445  0.6631234426398253  0.3365637150702238
  0.5069570095990066  0.7548907426665672  0.4250168359006584
  0.5860132471118131  0.6620009657158399  0.4272457220783019
  0.5817060907432817  0.7592172311331845  0.3364312951890125
  0.5001676860918123  0.7590551257146742  0.5811589880258123
  0.5717042307287841  0.6670972296644923  0.5795238075353735
  0.4909165173696858  0.6666072509838580  0.6766306251443772
  0.5789928035691497  0.7534804780228477  0.6751516923638491
  0.5005401010026161  0.6624019460675616  0.8280714068464594
  0.5006540872228337  0.7572021906105156  0.9122916686505554
  0.5763080202535573  0.7570294296517417  0.8332421414561244
  0.5814554916234613  0.8358057895319758  0.2448922681014406
  0.5793602090952525  0.9215215410996995  0.1671462268471694
  0.5011653753025636  0.9202730033515086  0.4117601101570583
  0.5868689291507606  0.9179679270196925  0.3272236906015412
  0.5029865478967698  0.8470724100041820  0.4951392729974771
  0.5814819062064558  0.8438003814146596  0.5876084412318797
  0.4907873724311793  0.8469079047392321  0.8303113748633547
  0.6671540493730114 -0.0129421524129961  0.0012111617227639
  0.6592942685879484  0.0663666949754930  0.0806033371991531
  0.6616937854141334  0.0768976501423701  0.2543415946471575
  0.7610346670788384 -0.0010364674886540  0.2512011728085863
  0.7457548937252154  0.0739592307449738  0.1668801576249419
  0.6732114479909850 -0.0032319277870389  0.3335688298224379
  0.7522546721221502  0.0012360009045020  0.4215573520347607
  0.6643240022445550  0.0812383499693034  0.5882323275145094
  0.7444678596652325 -0.0042160844056639  0.5836422718204356
  0.6605164606987600 -0.0101920140301764  0.6677591306272396
  0.6595662585029453  0.0745331452598826  0.7477761148772993
  0.7498385417243144 -0.0043878152513841  0.7461562691671254
  0.6606703241556625  0.0661523594058171  0.9096696627629179
  0.7539572365480322 -0.0010216400819130  0.9113063675435978
  0.6570855715023679  0.1585939741010305 -0.0012884990720717
  0.7391836099214235  0.1614012969041279  0.0867107395101431
  0.7402507248750279  0.2490917381776943  0.0059885528298673
  0.7412814459053906  0.1667374370240867  0.2526998583104871
  0.6661291101136592  0.2467040628601520  0.4210774168334812
  0.7431274094320848  0.2480923222914258  0.3267641206032907
  0.6657287008387438  0.2449468071830243  0.5896335318596775
  0.7508314005862848  0.2390650473176492  0.5079159877586906
  0.6587154098205243  0.1625983520007509  0.6688724226824067
  0.6564374582249498  0.2495499063849308  0.7448997185050871
  0.7506271873644007  0.1662174999734018  0.7448180696499977
  0.6592210930478796  0.1582966353512287  0.8240054263948237
  0.6708421986659233  0.2472521833914818  0.9045373755151965
  0.7408318869424069  0.1542991576308170  0.9121892017204180
  0.6797025974739727  0.3425751087442892 -0.0012112313641353
  0.6804580342290473  0.4299771468476429  0.0921422223814682
  0.7577054117457884  0.4333356741294611 -0.0077681430965946
  0.7566726285613673  0.4160551389642503  0.1784116993221228
  0.6771431117080238  0.4179875823143581  0.4139417991847958
  0.7551878076972329  0.3290042757153172  0.4113114243249312
  0.7528353990806201  0.4177988334275913  0.3201002808566060
  0.6719066066246320  0.3279111924373281  0.5053818315073886
  0.6663896353366148  0.4139281372853253  0.5887544850565762
  0.7497986169169877  0.4200806294723102  0.5063956281405922
  0.6651537270104624  0.4141825848036575  0.7460117712372731
  0.7497691657038675  0.3186765126579169  0.7402176447482419
  0.7464599220113272  0.4163680022368241  0.6674518190443662
  0.6687153603837895  0.3338760816982644  0.8268790321495436
  0.7538866462244507  0.3389520518277625  0.9100966802470111
  0.6626996642293459  0.5745947746451893  0.0792698968144292
  0.7593069272934385  0.5104381338077211  0.0818852434298538
  0.6677229535539629  0.5057680400412381  0.1753377731790405
  0.7576877962524070  0.5817544104033194  0.1710639623910671
  0.6792726529293445  0.5863817939235259  0.4197399487576324
  0.6762570834380988  0.5121337882224527  0.5109248531696829
  0.7573705007182810  0.5998041302963163  0.5192211631497223
  0.6654675409047468  0.5123961916331989  0.6640349458581547
  0.7459047004660261  0.5102496574560106  0.7474313629962609
  0.7470839051389685  0.6066818432988699  0.6685057107511355
  0.7409418580161860  0.5914556651848991  0.8287171751993399
  0.6604330629738552  0.6641255659467771 -0.0006643200173669
  0.6622866618480152  0.7535525068051816  0.0802038193538051
  0.7587938395847238  0.6547314031487803  0.0830093868133783
  0.7514765082476121  0.7502383411551756  0.0060554581535276
  0.6619634534134274  0.6632610270500696  0.1644103529939631
  0.7513235634657469  0.6663573612546121  0.2469555354718394
  0.7581922178348807  0.7462489481459721  0.1599958693400958
  0.6603261910409894  0.6703224397737674  0.3318753059517637
  0.7548488981090529  0.6732481793325489  0.4193564209791976
  0.7517334656645756  0.7479733937581475  0.3302600576896109
  0.6583275215723101  0.7527074613630184  0.5897798015074294
  0.7477741795857905  0.7492174012956453  0.5064685506421784
  0.6641358645083718  0.7525040365802171  0.7496460383938341
  0.7454650857348515  0.6673701723109926  0.9152452912197585
  0.6633433523206261  0.8439141617871831  0.0037416033462338
  0.7614329069427896  0.8383228686876366  0.0828975368436873
  0.6687053847568543  0.8363217487414398  0.1608506749585327
  0.7569474747391921  0.8312261163316376  0.2458274039669025
  0.7578035477834758  0.9230272213317781  0.1632114899000658
  0.6695954618921826  0.8328688080255917  0.3283932679175219
  0.6750736340270969  0.9138695634961654  0.4183546659924912
  0.7513988865602698  0.8271789990490052  0.4185397308007307
  0.6670076511466231  0.9152640214384643  0.9148142640427546
  0.7519224985747721  0.9102888713910191  0.8288481588018762
  0.8235385647521986  0.0000462424981087  0.0021705575695876
  0.9140754193934267  0.0121945342387548  0.0808121315421720
  0.9148645401676170  0.0791178665919629 -0.0105097121012988
  0.9110742850589730  0.0079206211761477  0.2485587777110732
  0.9114790038918444  0.0916453766273835  0.1659434402287314
  0.8368484560106829  0.0847933277975453  0.4182665521455110
  0.8351404868327901 -0.0014527985545560  0.5005399249712154
  0.8315567379760220  0.0792556227212649  0.5869408002485157
  0.9200420615076609 -0.0009270212042623  0.5808887359645273
  0.8375368116901121 -0.0054326877930057  0.6691100133443600
  0.8439706069954220  0.0815379366354455  0.7453804758735479
  0.8248051573199774  0.2510198053482454  0.0851233889442289
  0.9108855173567633  0.1572622509599241  0.0764067056823098
  0.9084722957505056  0.2461437702198805  0.0010457440790620
  0.8244399250120545  0.1661126338470996  0.1735898818403296
  0.9098355105399096  0.2461826632683342  0.1701479781832930
  0.8253569987673102  0.2391564997102507  0.4153421044906914
  0.9175092348914473  0.1701550258076786  0.4153930621763265
  0.9176625728840049  0.1598457599885071  0.5814015645661252
  0.8467945982854527  0.2419018256381324  0.7482859800194759
  0.8330036448051793  0.1616243292920870  0.8298433245299603
  0.8184897729594193  0.2463983265677925  0.9169602948602286
  0.9128691221119922  0.1675384670902708  0.9163985901710577
  0.8263515086474104  0.4132459655367763  0.0855033221321029
  0.9112341671936670  0.4160696089647089  0.0028641485815757
  0.9079465575096534  0.4101672211865493  0.1683309571014371
  0.8260359090348918  0.4211062215109932  0.4121861525513556
  0.9034007886259832  0.3239779839645417  0.4151423431074304
  0.9058625643184327  0.4149785431502359  0.3295501830653350
  0.8256250101974246  0.3259283430496510  0.5094007156397027
  0.8283041274611996  0.4198218473729153  0.5922948025437140
  0.9169270029992856  0.3274133118544257  0.5813412002598982
  0.9067752267920336  0.4179109054953366  0.4989695219675101
  0.8423238199708662  0.3241391915596556  0.6628853542692373
  0.8341595726950493  0.4158321863309949  0.7452562218065396
  0.8310018088784560  0.3332502804569701  0.8261148639097893
  0.9089022083450436  0.3280880727120065  0.9164794379869826
  0.8442072975624877  0.5035271384029421  0.1760325715311096
  0.8306831615414878  0.5834936386118071  0.4132652109246380
  0.8253999321955144  0.5123230942889585  0.5044337704900533
  0.8477755699424254  0.5994118349463333  0.5955483342660608
  0.9200951830154985  0.5008630102560990  0.5810378496805200
  0.8424714387836345  0.5076959622507844  0.6679001044871787
  0.8411939155500185  0.5938463262184840  0.7421727494660013
  0.9232065827694698  0.5001029820982820  0.7534800815338706
  0.8337583976852794  0.5049784150753939  0.8274240593759746
  0.9148306449540962  0.5059895624457453  0.9108841585970692
  0.9085431692019821  0.6627534293055786  0.0859819388952601
  0.9169000259340386  0.7451471613611578 -0.0012593510281277
  0.9137388640502822  0.6713504167393244  0.4232041502459876
  0.8380435044946614  0.7544376220887611  0.5823933886737486
  0.9280457913983460  0.6750966212738276  0.7432767042601660
  0.9243522621572007  0.7627156351841593  0.6666606944846833
  0.8360623581202214  0.6657501341029884  0.8314344502456448
  0.8295824011506134  0.7535725318213123  0.9225813652003687
  0.9140060562470014  0.7470786161964941  0.8377196717680692
  0.9116885686297389  0.8282815414319613  0.0780706599714967
  0.9218334848727296  0.9211067338246385  0.0031689883710406
  0.8446249933233475  0.9151377512942824  0.2515268583314487
  0.9197380616487801  0.8239120242479382  0.2497424214108987
  0.9154668117813768  0.9201439245063378  0.1563389555376170
  0.8366160391924640  0.9161467105043800  0.4157939526812411
  0.9208329113896530  0.9182485488074854  0.3376406701014187
  0.8412459866389065  0.8336841024191269  0.4988969919894539
  0.8332379752011702  0.9133326599882354  0.5851187292625089
  0.9266493884588801  0.8437435260601002  0.5854868201013126
  0.9235083335243495  0.9112157967623307  0.6799493270027419
  0.8378778853516001  0.8329994535624411  0.8310526400229866
  0.8362357987249622  0.9135569224443361  0.9197482276799043
  0.0753212574430586  0.3309123494847503  0.2524466375374027
  0.7504803893567595  0.0802683589265465  0.6706870311982197
  0.5743175195452026  0.9180320257556874  0.0023801322179973
  0.7476532284789738  0.8337386796132061  0.5866479878988118
  0.8343298436124783  0.8378090784437706 -0.0008991226666630
  0.4165487337677114  0.4204217378299667  0.8276679628678711
  0.3262658233958147  0.8271949897509933  0.0012545469104148
  0.3339838446649385  0.0072653971866491  0.1748525859879334
  0.6667270483351976  0.5794404970299103  0.9154063709085221
  0.1571737819109104  0.2494015276659600  0.2534544826011598
  0.9363136029334963  0.5868675311167052  0.6658355342247660
  0.4963413295193468 -0.0032901051441294  0.0021278605725594
  0.6722764068636287  0.5022597778389685 -0.0094082088507407
  0.4034588753918047  0.8352917715272037  0.9156742298174910
  0.9244331292200897  0.2421383786494925  0.6642991496899510
 -0.0021718722425058  0.6672742390424377  0.4966294288044904
  0.2538152837412797  0.4958578352388532  0.4088870125316261
  0.9137223373861213  0.5823008246941948  0.3310252593177863
  0.0878788065031898  0.0032228196334220  0.0871500113259630
  0.4123224504724601  0.5813561780266818  0.6695528414546228
  0.8366008918301523  0.7507844279915504  0.4192911087862108
  0.0063678306061642  0.0859074312824744  0.9118346923199812
  0.6625111847800214  0.6005917946150090  0.7466844861641746
  0.7473455375224055  0.2548098987724047  0.1686676030963823
  0.3413186719312175  0.1722702689378842  0.6640899859364832
  0.3312003541522196  0.7438506697837522  0.0868750503027331
  0.8407223774497374  0.6732493284505500  0.5056643950693982
  0.8286482011326395  0.1640969303250766  0.3286851733694524
  0.5863300559977151  0.4183001006206276  0.8255426859518976
  0.6622871225046297  0.7529507437024783  0.4237774930983952
  0.5042925218981870  0.0783711577488943  0.2541787586269752
  0.3349397742356880  0.3303115174978465  0.6631905485805732
  0.6712092934847350 -0.0030425767601640  0.5035439552149633
  0.8428548062396282  0.5039090265320711 -0.0053965114944113
  0.0805755675798164  0.1771064269589146  0.9146994885545513
  0.1674932185741485  0.0912784392319971  0.2526633757407609
  0.7551549319657984  0.9115939795104828  0.0037153060744061
  0.4067100690907443  0.9145151627994711  0.8335177493759435
  0.8346718928078398  0.4232535212656169  0.9112047177695137
  0.2473051558215378  0.1737276425295935  0.4128623413835006
  0.8344682253491963  0.6629323338528259  0.1678117036595459
  0.8353418881826209  0.7454750344789252  0.0790536809383244
 -0.0029792365168790  0.6704142159146764  0.1770728679346987
  0.4253267167622344  0.5819905936353418  0.3432066726003293
  0.9124094247974982 -0.0000796868333865  0.9135957628703915
  0.7506384128618331 -0.0056366584791823  0.0857627986297942
  0.7468665529146030  0.8327182608353455  0.7500676224130763
  0.9174246724353754  0.5864570319932787  0.1720625841499408
  0.9146851779433450  0.3311477026815872  0.7490334448765102
  0.4974761570376722  0.9117937567033744  0.5906010211817277
  0.8272934698748516  0.0810920400772995  0.9126458778562285
  0.5010001113785647  0.7578944239036352  0.0815820930358861
  0.2473921333645291  0.4948035997987632  0.7439485749582566
  0.0713498961779387  0.4141922982416034  0.3270748185319997