Mo Fe Cu                                
   1.00000000000000     
    22.1268536263195266    0.0112340378260300    0.0255261607541236
     0.0118597502037500   22.4456693758375572    0.0244492051409334
     0.0263856268219875    0.0239247757925890   23.0093612131620127
   Mo   Fe   Cu
   432   216   216
Direct
  0.0042473956754361  0.0096986759248824  0.9954295803774528
  0.0004149824920058  0.0880295264082760  0.0816341036750768
  0.0862360350295169  0.0967974254705697  0.9977639040918408
  0.9933052636616071  0.0834991503567234  0.2521785738795906
  0.0841884596519948  0.0119605674406227  0.2519783897623986
  0.0835338317628286  0.0091146142566985  0.4036267037787982
  0.9993255543486389  0.0095585576043839  0.4912543289516009
  0.0035498972735687  0.0123457508711351  0.6684477442975454
  0.9934801520890173  0.0754400854366417  0.7596522674711436
  0.0969981132721676  0.0240701142045483  0.7604094213138183
  0.0889438425031149  0.0920225338088487  0.6649618236424568
  0.9858661272551763  0.2397076141271560  0.0863717051741700
  0.0762760587030044  0.1647905930750834  0.2551357646781919
  0.9939513715864555  0.2519376891015795  0.4112555509749085
  0.0724921555237904  0.1643566739563798  0.4074109547369131
 -0.0010437490792696  0.1588151663526218  0.4996585948216948
  0.0757672047651785  0.2538298541055101  0.4955068198554190
 -0.0057807833847034  0.1588025337914952  0.6685516707138713
  0.0803912277852149  0.1610685165767613  0.7613551888943754
  0.0771312148159371  0.2426861283310827  0.6664979191984381
  0.9884766422328060  0.1655309492076609  0.8374000560128647
  0.0761763790291769  0.2552371831948829  0.8334341251707190
  0.0714195090021329  0.4104858809762364  0.0068366094794299
  0.9884340434565917  0.3292825793051144  0.1683890042345043
  0.9865246169763869  0.4115664295960183  0.2495264119003064
  0.9820827551765261  0.4061055328642602  0.4108140200445868
 -0.0026867635895529  0.3276430903560488  0.6708764389235717
  0.0790287964843054  0.4102818946071057  0.6689694518237781
  0.9874921422219312  0.4135620853229121  0.9213943577515463
  0.0678426889126616  0.3253703503317687  0.9208514471903305
  0.0783146076664309  0.3980493412041244  0.8335716846216014
  0.9988310461298636  0.5852608170790670  0.0874088145890147
  0.0922712852025902  0.5667995123381218  0.0060018524021388
  0.0730905239303528  0.5802932035392004  0.1677890617652396
  0.0683972201440590  0.4919343858381002  0.4103105708388836
  0.0758584827898668  0.5695514152784087  0.3290229842483507
  0.9984629090363820  0.5886446992978444  0.5783876125495624
  0.9983054035719134  0.4938708699157898  0.6684297304761534
  0.0036285400001859  0.5839447049533191  0.7605546721134578
  0.0788077237846461  0.5694277882312508  0.6627366431302882
  0.0098788192847250  0.5793930142979258  0.9175480232183417
  0.0161093695941725  0.6600853117219018 -0.0004554651901408
  0.0088093084002587  0.7369359480159580  0.0816700596721520
  0.0988000681362625  0.7573258119233675  0.0066269410455780
  0.9965964825480648  0.6618858549150093  0.3298545605413664
  0.0779178635979259  0.6581119199083714  0.4103016700395548
  0.0131149972996849  0.7517254578350547  0.5798015610490237
  0.0851009437888328  0.7447890034051438  0.4914807912847325
  0.0206958759890000  0.6718307319969563  0.6659939652099884
  0.0877916309771362  0.6639994954725869  0.7584605390286849
  0.0984160498579269  0.7559531068895543  0.6654313039775073
  0.0963451299012096  0.6629502965124562  0.9143138686918360
  0.0903314968338654  0.7571178766809223  0.8393109316875325
  0.0052220628548183  0.9254400342310939  0.0860850469794946
  0.0995267894181701  0.8353966377484783  0.0938462540802043
  0.0911160084681989  0.9248747681131908  0.0072166996016501
  0.0017567963738232  0.8252423777910070  0.1556115407446100
  0.9917002559500174  0.9230808421995483  0.2424231663071220
  0.0752157781230855  0.8335266515000608  0.2395751527854829
  0.0890473371123676  0.9307203768099561  0.1662440163784422
  0.0896556874251793  0.8308166516303105  0.4029075019365637
  0.0784893873240417  0.9215650643807231  0.3232440027188400
  0.0124279388935973  0.8375333521263360  0.4916399399511183
  0.0216348150784166  0.9266368037307270  0.5826653524052268
  0.0919485933174708  0.9260635174397410  0.4928197726002817
  0.0119802180838320  0.9287525518328050  0.7611445260783094
  0.0988093111567867  0.8435949574121254  0.7614669957734572
  0.0992172977342621  0.9353237176804741  0.6690617006171824
  0.9979648269522872  0.8368724246195988  0.8362954346274227
  0.0024929795009384  0.9234913268128722  0.9161459331877797
  0.0956583461364465  0.8425385824916839  0.9193372326076870
  0.0960223386026103  0.9302944717369043  0.8405730316134430
  0.1780836704994522  0.0150472212363983  0.0072285522946439
  0.2625519240150542  0.0214529945696154  0.0992138930315603
  0.2493232862326677  0.0152357451011840  0.2483705775533746
  0.1686304611411315  0.0137508956158292  0.3295301786087879
  0.2489823559138234  0.0007203524627891  0.4093164153267131
  0.2513246591040474  0.0159466998695750  0.5749403842854971
  0.2533341941105135  0.0970911141009174  0.4881065286935546
  0.1796318593000046  0.0218056604474540  0.6707189280401227
  0.2568313109081495  0.0201896673247624  0.7555083342125125
  0.1735500077539829  0.0956551884596588  0.9241173734430402
  0.2646820571910629  0.0205634424070222  0.9126918629254018
  0.1600293386138375  0.2485509088125194  0.0865801875709044
  0.1639055194970197  0.1730491153460582  0.1704545104416254
  0.2534301795699971  0.1737768698258028  0.2567626458854350
  0.2609344418992800  0.2415095851925296  0.1709706255640769
  0.1567432023403330  0.2511885222652268  0.4119352660176060
  0.2475983158079284  0.2567949481318073  0.3340234031439557
  0.1646704046791929  0.2547765809478851  0.5703746252519184
  0.1715289138605862  0.1747960746415745  0.6628743184293914
  0.1669938399813523  0.2466447128488546  0.7551531198828602
  0.2608872163646831  0.2541440306595539  0.6642544888041064
  0.1627511061293943  0.2553375019347823  0.9233467221037119
  0.2571567353305893  0.2461029330462462  0.8280674908244567
  0.1583314820026704  0.3323155814498606  0.0120851841940089
  0.2528669335768333  0.3259840147563010  0.1005020865569642
  0.2512570942691432  0.3988654772283648  0.0105684124357491
  0.1547658329305918  0.3213913986349166  0.1736740183309661
  0.2510424425124111  0.3260062970064390  0.2462556209294422
  0.2499687836599445  0.4140027308216208  0.1767572038209940
  0.1544508606481013  0.4199198539270321  0.3997784507782246
  0.2488366105363911  0.4067632084106264  0.3286510130533726
  0.1543985501221237  0.3418745851959716  0.4914374136562180
  0.2513613399611833  0.3333039573114350  0.5773910377056171
  0.2487870407034032  0.4136886577598502  0.4901839522428094
  0.1579306116272766  0.3239300791627208  0.6680170886743330
  0.2470265425258042  0.4047961599497963  0.6632298226705740
  0.2495204035860284  0.3311181957198639  0.9155654597495844
  0.1647719137570226  0.4793022865680054  0.0069141544064718
  0.1633334616359387  0.5699024271657794  0.0926605546866552
  0.2414626354365305  0.5748828425748332  0.0064175151170670
  0.2461882267529663  0.4961941799913382  0.2565457059696917
  0.2534468110018375  0.5715317363047545  0.1683613142171501
  0.1676985101278246  0.5690472517750879  0.4114808162967267
  0.1567769154759276  0.4854821318501947  0.4944907804951899
  0.1656522096182346  0.5662080038247509  0.5752695080406633
  0.2543284625695882  0.4867134406981706  0.5813097714221567
  0.2549266425747765  0.5708996276802383  0.4948562602479431
  0.1641814518439877  0.5721230750585664  0.7479499434535857
  0.2496578280757287  0.5705295973172144  0.6636719884880340
  0.1696754743592498  0.5703793481419743  0.9162286668696406
  0.2458399847706013  0.4777780308975939  0.9166585700116592
  0.2462423264153988  0.5673138513596659  0.8270737480437649
  0.1651321094337824  0.6640576419097395  0.0082049968533408
  0.1626973001564632  0.7410477497940643  0.2507626998518288
  0.2531359932924483  0.6475433892240566  0.2553143143870478
  0.2587145549502794  0.7379747380208953  0.1848429875899973
  0.2437050931790761  0.7427044895559847  0.3301384147200742
  0.2488804151809686  0.6584163857426575  0.5806896137776234
  0.2404863309793554  0.7409010059154267  0.4830056316230677
  0.1687175587034692  0.7473401109595349  0.7529374171744186
  0.2486361025597141  0.6578636782986996  0.7426250235002588
  0.2382101007690056  0.7475659365388909  0.6618158447081830
  0.1770062910015995  0.7543598731974515  0.9157644622717693
  0.1814091968282395  0.9320278751636307  0.0908627877726736
  0.2545689264485282  0.8312082482848947  0.0948546432969275
  0.2618478298850449  0.9261840963356431  0.0043938973215242
  0.1778915688965823  0.8354663597763153  0.1803517648240100
  0.2461654904038885  0.8379547717176757  0.3961578476828538
  0.1679498316332328  0.8327976760080726  0.4864813832011760
  0.1707185529310332  0.9291033593268865  0.5774639633744022
  0.2336176798415596  0.8294814995335681  0.5812383106681279
  0.2420221999036020  0.8379521122465536  0.7513184221257543
  0.2436003000205219  0.9198149561613818  0.6661234272103924
  0.1844991273893776  0.9319322242490481  0.9194480893404574
  0.2549253006308415  0.8353024127062325  0.9145306298011165
  0.3311512273743541  0.0239702960548486  0.0015492047522019
  0.3390543706400359  0.1056936484619956  0.0939574371577843
  0.4107302329393778  0.0088869565311277  0.0813590640770972
  0.4250466795311363  0.0841892675017143  0.1795120815897347
  0.4306206400824455  0.0807496548535305  0.3323836352560748
  0.3349552214631346  0.0992631517208687  0.5805555994592509
  0.4046466741454299  0.9890339114955173  0.5811196546323841
  0.4135025748439317  0.0768909810235065  0.4966627973278663
  0.3212231797439644  0.0034707805902816  0.6668441805229745
  0.3402168503439773  0.0968306152374187  0.7518737548739244
  0.4131729831196462  0.0752798325144016  0.6603714877355461
  0.4148657897326206  0.0098937582279653  0.9204838269832660
  0.3412059601309639  0.1744630136777624  0.0018409088800852
  0.4379463386965521  0.1644807834133392  0.0843466278797364
  0.4402093952833993  0.2527474484470305  0.0114445703839905
  0.4338843111336141  0.2512266265983333  0.1710535044836119
  0.3400643115104026  0.2523488392493913  0.4107228371427846
  0.4367311668963516  0.2500091502525286  0.3383896083899598
  0.3367281609958849  0.1755369657973569  0.4923993002534521
  0.4247698935601179  0.2535287811629167  0.4978850927249477
  0.4224580263742267  0.1754387947002696  0.7476095371965457
  0.3431364299550816  0.2564951057256649  0.9193537179950574
  0.4344293530985603  0.1684825675185250  0.9177903732538933
  0.3414470600685114  0.3201578053711827  0.0140697689080722
  0.4181925706242606  0.4083261441831833  0.0042166034703704
  0.3506579223831763  0.4057954046230109  0.2522249107980444
  0.3465454569008137  0.3358630122401997  0.3384777372435188
  0.3391832547535124  0.3336009808132112  0.4916675322550245
  0.3468848396273287  0.4113713698111165  0.5794433810286346
  0.3385680103827156  0.4135236199557137  0.7436917996254395
  0.4226633852844601  0.3341913581842920  0.7401709206140307
  0.3413658101195383  0.3339822072234769  0.8260669051774298
  0.3409131829827081  0.4069268746434074  0.9173553048538521
  0.4318671585805712  0.3327314018183608  0.9174290237276069
  0.3375543078494247  0.5837596469172304  0.0769454766451001
  0.4169471981441285  0.4921758726903979  0.0860794870147558
  0.4132278708445040  0.5805739818942159  0.9937364143011272
  0.3412321406145810  0.4936710234676396  0.1711377066468210
  0.4218104297972083  0.5024572652833336  0.2547036567264072
  0.3395969037987014  0.4970508857952776  0.3348030146334729
  0.4062733195650690  0.5818824806711133  0.4899223458480472
  0.3361597096701912  0.4857470959369116  0.8284213261734936
  0.3204771844928364  0.5683488404758571  0.9162953227127388
  0.3191727478784700  0.6729488362849588  0.0015532275657032
  0.4182508740717019  0.6756945269124495  0.0819279356423231
  0.4111450680026968  0.7539020863865502  0.9938357389352411
  0.3436074359685577  0.7443512793252659  0.2656879828835361
  0.4175257150430325  0.6561771702228789  0.2545067099807863
  0.3353279281308109  0.6508200596918439  0.3471151068933560
  0.4218193760747520  0.7510671276396733  0.3454697701060729
  0.3277857337230095  0.6653628834994251  0.4872084546635495
  0.4048482074628854  0.6710761900922845  0.5782362817001663
  0.4036342839815829  0.7580446201837941  0.4861818522122158
  0.3329156868634550  0.6675734704460285  0.6647824851746075
  0.4005019679131598  0.6624230714920032  0.7549629456681641
  0.4042210771415759  0.6655105431242020  0.9138034769308500
  0.3976679532130422  0.7506339441523749  0.8387456884460813
  0.3278023235519066  0.9247715273840051  0.0918002138574342
  0.4019831891591075  0.8256013636498762  0.0858657193108147
  0.4027187375759929  0.9143504799435315  0.0018024456175916
  0.3287704554949307  0.8346284199841743  0.1785582062384401
  0.3110992328616984  0.8323253488176666  0.4894286147674378
  0.4017463958042199  0.8356782209026130  0.5813622845998396
  0.3969104631931030  0.9102151081110469  0.4957817104525287
  0.4040893691813215  0.9132755586874166  0.6669396167563431
  0.3333348507003533  0.9240257004513261  0.9114267137827000
  0.4948477971365434  0.9977319111102831  0.1704986817968947
  0.5885771699325739  0.0657463718568375  0.1714456781660833
  0.5024458888026578  0.0673429874199433  0.4276383582301321
  0.5806892743476070  0.0685041936295715  0.3429070737920500
  0.4964662696292134  0.9800291928628465  0.5035715178730448
  0.5817231128889125  0.9831956038791473  0.5865923621617525
  0.5925841834355957  0.0686316076990265  0.5065149029818971
  0.4823161471177542  0.9878856179843912  0.8282527421034183
  0.5632240734270710  0.9835523197486751  0.9139047795349065
  0.5219441509267577  0.2592503023757196  0.0872817476572312
  0.5916264132352523  0.1626498480480007  0.0886665841430830
  0.5949650776951653  0.2545168087942977  0.0008033263147740
  0.5166619353026897  0.1596378053427419  0.1731360646252534
  0.5151051565158352  0.2572611216022141  0.2562576934694097
  0.5920292048388582  0.1658228303955427  0.2551114538677790
  0.5178110166387543  0.1629167459426487  0.3456350261418417
  0.5965048539312212  0.2549882935680060  0.3400557556846121
  0.5019096258585100  0.1653721119061717  0.4988001335976711
  0.5773500295592305  0.1614485339781806  0.5817362664353916
  0.4917519764665104  0.1629577323155134  0.6554419988477522
  0.5052102792067158  0.2580605524417396  0.7401957089609477
  0.5706296779469817  0.1595522422789068  0.7400230914441617
  0.5059215279835099  0.1621288288995563  0.8291696499673954
  0.5168635923465602  0.2526752732904557  0.9173734389485816
  0.5841114292269302  0.1552706921438592  0.9104111959472618
  0.6066886517040592  0.3458263781335894  0.0904170553793088
  0.6013533090489751  0.4348072079159246  0.9995189751574518
  0.5006859329897367  0.4137088578557037  0.2571127071212946
  0.5941726019695133  0.4219490998050792  0.3381635484970517
  0.4992836087623954  0.4186637614917285  0.5786930609006335
  0.5937481901504863  0.4200018672440106  0.5004790220834600
  0.5051103341463040  0.4224712378365822  0.7439036568286786
  0.5131061837450509  0.3409377801309292  0.8253800977027635
  0.5068692137124862  0.4232516578235493  0.9089517057080516
  0.5944188695871567  0.3434923261246129  0.9107201115284415
  0.5017254948795504  0.4944584884052886  0.9979710221570887
  0.4963164060800273  0.5849816108376775  0.0799827945518044
  0.5829166702149270  0.5779357197849613  0.9928825808715090
  0.4971307952990059  0.4957067074697294  0.1710330726528770
  0.5018714039750861  0.5039614296350895  0.3428851967899562
  0.5959255241177039  0.5137236908454279  0.4242555019802501
  0.5875753363848384  0.5828181444901498  0.3340964351681431
  0.4988641519853685  0.5052366625646181  0.4969853230414145
  0.4906351380846055  0.5943448862020713  0.5799556198503996
  0.5830192707273291  0.5181125943700310  0.5839798968475416
  0.4976289760376438  0.5119456490197656  0.6622799366562327
  0.5901562846720403  0.5167144374425634  0.7450716169561111
  0.5009597444866745  0.5062015128528391  0.8250783855261112
  0.4994815037216309  0.5792862870564760  0.9116674000964401
  0.5740471198602944  0.6686314314831706  0.0831899986492886
  0.5716865081419367  0.7584979301556991  0.9936607591081298
  0.4970996251951322  0.6684852144358360  0.1679977120078475
  0.4874452506028317  0.7571378194521731  0.2462020307953553
  0.5782418790911072  0.6717462431563452  0.2490506660302057
  0.5017152043784118  0.6624399407547938  0.3381071950342971
  0.5013190224217166  0.7565221858999432  0.4265875812795059
  0.5854824674130633  0.6668429691339702  0.4285318209741902
  0.5788142903052474  0.7607097339789390  0.3381747247718078
  0.4915814284758092  0.7531095037383496  0.5787220263365399
  0.5774204419793616  0.6728776831484199  0.5781176520193658
  0.4823352793854473  0.6648852802736810  0.6734779625489533
  0.5737456678205090  0.7490324807362744  0.6742945217286206
  0.4928801153696264  0.6613605593274705  0.8280692642908881
  0.4932559064012860  0.7572064737142947  0.9119489549750859
  0.5687504496552669  0.7576387937875615  0.8320919094245499
  0.5768088619008741  0.8313344559257547  0.2470249689198944
  0.5759615747801490  0.9166559359821519  0.1688201283661876
  0.4986890743026793  0.9148653430906796  0.4144367719803774
  0.5850776337990317  0.9110262866124974  0.3300580942590592
  0.4985997939739672  0.8436023577124393  0.4986194937225098
  0.5805107801534667  0.8339220370906698  0.5894589492276879
  0.4839251514846250  0.8446573585684684  0.8270722949470991
  0.6636410521402755  0.9824239904934760 -0.0007005812477716
  0.6589827523394944  0.0605147363916063  0.0808168801538615
  0.6612330541652042  0.0716389151972490  0.2598676609940305
  0.7589774874581326  0.9913418343237541  0.2534388259603452
  0.7408576025745293  0.0671232670074016  0.1699675253396186
  0.6728916501989282  0.9873476082438047  0.3371116146749335
  0.7548559914031330 -0.0063878587846818  0.4231454616391112
  0.6712253652230484  0.0732255841055078  0.5930158127592540
  0.7488173865860056  0.9879405365568730  0.5847313543920545
  0.6608138786733390  0.9820394091036813  0.6679096493206929
  0.6582257001044568  0.0696441738596286  0.7426668204362342
  0.7480637333808211  0.9861680755275287  0.7485004460993058
  0.6562594461196211  0.0590968659611315  0.9065302494961281
  0.7507876105081499  0.9931442650297516  0.9080196875935369
  0.6559056340403150  0.1545688165851165  0.9972606747867837
  0.7367982062761815  0.1571647414610844  0.0838005577742213
  0.7359217415795223  0.2485600206589354 -0.0016392270922942
  0.7381777306294731  0.1646033177057112  0.2593604044366057
  0.6684737164636323  0.2459879330510271  0.4257224973786507
  0.7407314666837677  0.2478444746375437  0.3302316986223511
  0.6700978178579974  0.2471685039376967  0.5900204056621898
  0.7533241089667859  0.2395421974549202  0.5102670959579456
  0.6598019008568896  0.1606228702524980  0.6659105505351883
  0.6562106941474299  0.2500557522059645  0.7391127060313746
  0.7486874953446543  0.1640421189842394  0.7416237276724211
  0.6569046158100891  0.1560694350416942  0.8171136893274501
  0.6653923357117810  0.2467405519211813  0.9040744476013441
  0.7330407987866440  0.1517263153633095  0.9074887234243615
  0.6749514602864302  0.3446852031286494  0.9967752566521059
  0.6805681084829289  0.4365787049367490  0.0905065382994040
  0.7546283237453794  0.4357985604045937  0.9901655095786354
  0.7546430973844773  0.4196637992127252  0.1782747964397652
  0.6811247382278486  0.4223874354729552  0.4173785488109072
  0.7559350134632663  0.3307641558458751  0.4131968442266263
  0.7539563186131056  0.4208577802567113  0.3210119242168422
  0.6749407510314994  0.3317894935919203  0.5072475918402874
  0.6686549108064727  0.4203527703251608  0.5882500948671323
  0.7549871538551517  0.4234220010471645  0.5086820494087295
  0.6620117047982016  0.4199560001735987  0.7429167113967758
  0.7472826768820544  0.3226480786880647  0.7390335525501889
  0.7465244215329434  0.4211451334495848  0.6687115899233137
  0.6638063547494873  0.3359492649109250  0.8216423207059732
  0.7466230466887045  0.3403862313994110  0.9062601608869344
  0.6636162704751902  0.5831200346703033  0.0781945951998066
  0.7593192667777350  0.5163195214882694  0.0808369811591580
  0.6694330145121622  0.5118225256426455  0.1757573786434850
  0.7576936905787096  0.5891854009617191  0.1709381019840628
  0.6824581634034509  0.5907611508366631  0.4207205146082911
  0.6828807494424086  0.5174763646481545  0.5125774479348015
  0.7644950361417533  0.6052759365182190  0.5174443950949786
  0.6635425923991113  0.5186912458270588  0.6617340472410967
  0.7448191000757518  0.5149501731658511  0.7454310153397320
  0.7524957503337679  0.6106713921666415  0.6747933996318014
  0.7426908980294841  0.5970359424007458  0.8278251928796549
  0.6584891378296218  0.6678149702198974  0.9944351603591900
  0.6585682307082322  0.7516726148265608  0.0785649284172911
  0.7587300498884787  0.6586016296264199  0.0805196054600647
  0.7503805202038654  0.7508379336720588  0.0044037861839252
  0.6594827494618786  0.6663723747092558  0.1663133456240043
  0.7532601625048080  0.6696390059577941  0.2498841790218827
  0.7566950743572253  0.7442379675028625  0.1616747617158468
  0.6614157517029517  0.6742939426750848  0.3350278178198127
  0.7614162138788398  0.6758613257704642  0.4192470241265177
  0.7558393905078797  0.7508894908439849  0.3309156198094847
  0.6661522326810912  0.7519709274232629  0.5920898630440158
  0.7550705840618133  0.7496794437921599  0.5069916142281871
  0.6618497886984053  0.7549309970278771  0.7461842426852893
  0.7461099190328569  0.6734505252482152  0.9129868183982676
  0.6580932840280749  0.8409472075377933  0.0018719154112540
  0.7592897000632507  0.8348591509213539  0.0814815662893585
  0.6651755248166128  0.8323816161999598  0.1607240622211102
  0.7580983932189026  0.8275941407411275  0.2463032118785048
  0.7557821777885895  0.9172766277945027  0.1637567078329252
  0.6697855694954883  0.8299544420441417  0.3315924665598100
  0.6756287149841642  0.9067738602444139  0.4213470651709517
  0.7575583151703926  0.8238704260081332  0.4205229980377431
  0.6620220395837728  0.9127473103632184  0.9126161685658033
  0.7520540660680788  0.9035598768523941  0.8296843108690346
  0.8195146218392559 -0.0042827684485133  0.0000302305431181
  0.9078514276696280  0.0131869635643648  0.0810629198062740
  0.9070017183090190  0.0788412250030403  0.9896844987147599
  0.9084717038043565  0.0074635102742219  0.2464251943964992
  0.9020357428315060  0.0916946676650180  0.1651576245473205
  0.8361408283473510  0.0806062866269295  0.4186087968744373
  0.8386987690511669  0.9924051879264918  0.5001429992566628
  0.8332662042377345  0.0731831128937123  0.5886850902280168
  0.9227552970628471  0.9948073620126472  0.5819694863773394
  0.8392330521000427  0.9864784106294788  0.6723469856990748
  0.8403092699776687  0.0762703516397597  0.7451346876821839
  0.8120228488370889  0.2511941221884820  0.0830650712175654
  0.8997189568383737  0.1576013434041242  0.0756767546436471
  0.8982412581236491  0.2453475669273437 -0.0002253783797107
  0.8126155421808832  0.1638642688317087  0.1727362784984872
  0.8998258937360664  0.2423618664036104  0.1683863931787265
  0.8229315017255836  0.2375644833018690  0.4163723811329439
  0.9148116786049184  0.1673497364166080  0.4162547795394058
  0.9148022454722560  0.1582771572470946  0.5809817166682665
  0.8437792607370213  0.2412492776017595  0.7485990416542144
  0.8270932504142112  0.1588418929208487  0.8275751889998946
  0.8117000697714234  0.2461081479216322  0.9120135474536372
  0.9045302211989633  0.1659890175868705  0.9153818014355610
  0.8224228314022322  0.4153696134261459  0.0836480031771271
  0.9064637368929019  0.4151332673161111  0.0020599968409574
  0.9027541190875358  0.4095352547855654  0.1657438177789294
  0.8281420283937299  0.4218346517520410  0.4123696487301104
  0.9002584190862829  0.3226140257345105  0.4150719715584479
  0.9041747436182372  0.4138773932904038  0.3275166647898946
  0.8267623319129700  0.3275752166116033  0.5100555816759226
  0.8302463925502503  0.4236639763288849  0.5967671535914201
  0.9154754331919935  0.3259949228712440  0.5840961004542170
  0.9033284178748269  0.4187357158789007  0.5016455571203602
  0.8415507519557912  0.3254823903459325  0.6649658798516301
  0.8344965928671098  0.4170812086542294  0.7458626846134971
  0.8269735254061160  0.3339100721913445  0.8248728801195324
  0.9034024187472105  0.3275612112972870  0.9160858137597738
  0.8415197076488644  0.5059402602459702  0.1748609637237657
  0.8352803167859061  0.5858042625790623  0.4117309436933718
  0.8281862935762320  0.5149966296367624  0.5042685029608165
  0.8506677734277166  0.6015577050864808  0.5964480095875138
  0.9196257173342227  0.5051518664600196  0.5849803869361809
  0.8453569659191970  0.5120244623503405  0.6757757706160124
  0.8453422963064213  0.6024774871683268  0.7522942628149226
  0.9257105260001565  0.5026580114287038  0.7567004815792988
  0.8328307200254720  0.5061416639175327  0.8246980100414207
  0.9132960292395750  0.5052487266435931  0.9104676613542413
  0.9113426793155485  0.6653225176423088  0.0832395338420557
  0.9224071862598866  0.7457698973103269  0.9991993115427348
  0.9185752803903658  0.6707824377974085  0.4187861614681070
  0.8467147657299722  0.7575683398311864  0.5862753124751979
  0.9375354971658026  0.6793381589606847  0.7480257957584692
  0.9349352361483056  0.7659564691761526  0.6701902440849000
  0.8398137633858596  0.6768320519636511  0.8373035574892018
  0.8346688503634749  0.7593806088158594  0.9249659008577173
  0.9277456372864189  0.7478459051668677  0.8404026811046674
  0.9133023084759294  0.8261534684173296  0.0785604368640549
  0.9221786930336727  0.9207631544950694  0.0061925929702265
  0.8453821397460718  0.9120164151882985  0.2505481534725716
  0.9246126998297046  0.8259082304134649  0.2439591218201351
  0.9122280751409508  0.9201115838986929  0.1536484782553383
  0.8432413862990222  0.9114977706971127  0.4153146302576033
  0.9252219074911646  0.9183686157937707  0.3338391894223927
  0.8510126828184188  0.8307499461503920  0.4999431151556033
  0.8388316382852133  0.9085840229303874  0.5866130999341433
  0.9377611502155909  0.8468614355441489  0.5855873621929123
  0.9316083338993133  0.9106061629420510  0.6814008562913090
  0.8451641454450433  0.8291943837689549  0.8335452494805584
  0.8380145797548414  0.9094581835897558  0.9195992667345312
  0.0708388737678365  0.3267871133917782  0.2501430446774649
  0.7519738299132078  0.0741566787068340  0.6728910132853897
  0.5694193708894076  0.9168969744813498  0.0026046300742721
  0.7540716455842438  0.8299015615555591  0.5879190959516454
  0.8368057478883070  0.8366324220386522  0.0006941653818558
  0.4223068703430610  0.4198598647725277  0.8280387002304250
  0.3223689092894842  0.8284236275575222  0.0025139629496204
  0.3385824875592470  0.0121725432726087  0.1781825465598044
  0.6683478702665185  0.5852593893836066  0.9125986580571177
  0.1562683974473591  0.2466147821909130  0.2532301822841067
  0.9353480194861210  0.5938617528085712  0.6707683607705417
  0.4920044840681121  0.9960853965399731  0.0033990872598474
  0.6741018116424945  0.5101469239175379  0.9881155993670566
  0.3959012588589865  0.8325951496554337  0.9163413068224354
  0.9217041772937341  0.2400101141630803  0.6658659931829271
 -0.0000724402281239  0.6666306201328739  0.4954403857384742
  0.2506538055806449  0.4893254720241924  0.4078454774330116
  0.9156642263993553  0.5814744957036450  0.3285217222621648
  0.0878002948112589  0.0112241636436370  0.0854663177377278
  0.4057453691265861  0.5808686306431374  0.6665647405340187
  0.8460872230494266  0.7530455373367353  0.4162842899963169
  0.0008206125015155  0.0862673890458961  0.9139929611965784
  0.6611200365929791  0.6051491388630663  0.7491456145316615
  0.7412925119800405  0.2540921421476344  0.1724294708800708
  0.3456581779043644  0.1782499168783421  0.6617451588162601
  0.3241195026360992  0.7433612133790561  0.0885809086618529
  0.8505378393464883  0.6803044937792762  0.5068991359678228
  0.8252321316611593  0.1611046261791939  0.3313957714965187
  0.5884463296056018  0.4274840204102671  0.8240872280947849
  0.6657858418068190  0.7535860358123885  0.4248246117432239
  0.5098336227090372  0.0761372376518773  0.2584485052674787
  0.3421779968517953  0.3336385040193751  0.6608532640864008
  0.6747887194471267  0.9885699900021088  0.5054369259469618
  0.8406017669184821  0.5056216246193599  0.9934038896322265
  0.0763119192356374  0.1774618672580496  0.9185960395332139
  0.1686439030222490  0.0965863284043116  0.2511454201309041
  0.7518202286768608  0.9077858239795709  0.0024398541696280
  0.4050167969823759  0.9154426166717105  0.8275827851839882
  0.8297229497780517  0.4243737928866792  0.9089665775886004
  0.2472652016199377  0.1771835976902917  0.4121326129696545
  0.8389834954973480  0.6665384057229882  0.1675256738963882
  0.8350238456713912  0.7460046962859677  0.0783468902018886
  0.0003558019480343  0.6672320706186745  0.1722154834603513
  0.4223096664773998  0.5813287844255806  0.3453538728143563
  0.9105468434822697 -0.0003841379148799  0.9140437143029145
  0.7473099005417053  0.9885291912624512  0.0856338334851651
  0.7501968760238903  0.8300100992075093  0.7510580931343838
  0.9173589453472731  0.5861498962366574  0.1695312777602609
  0.9125043709423286  0.3301117118503264  0.7502520279927436
  0.4947858512163547  0.9082694303777468  0.5898313958130912
  0.8216535765933971  0.0778731552007537  0.9095190399643616
  0.4954273012051131  0.7558918828599719  0.0816064683616639
  0.2477044611975159  0.4875314908579793  0.7440884639321750
  0.0666099752800292  0.4099358053225789  0.3242322644220001